p cnf 337 33518
-1 -2 0
-1 -3 0
-1 -4 0
-1 -5 0
-1 -6 0
-1 -7 0
-1 -8 0
-1 -9 0
-1 -10 0
-1 -11 0
-1 -12 0
-1 -13 0
-1 -14 0
-1 -15 0
-1 -16 0
-1 -17 0
-1 -18 0
-1 -19 0
-1 -20 0
-1 -21 0
-1 -22 0
-1 -23 0
-1 -24 0
-1 -25 0
-2 -3 0
-2 -4 0
-2 -5 0
-2 -6 0
-2 -7 0
-2 -8 0
-2 -9 0
-2 -10 0
-2 -11 0
-2 -12 0
-2 -13 0
-2 -14 0
-2 -15 0
-2 -16 0
-2 -17 0
-2 -18 0
-2 -19 0
-2 -20 0
-2 -21 0
-2 -22 0
-2 -23 0
-2 -24 0
-2 -25 0
-3 -4 0
-3 -5 0
-3 -6 0
-3 -7 0
-3 -8 0
-3 -9 0
-3 -10 0
-3 -11 0
-3 -12 0
-3 -13 0
-3 -14 0
-3 -15 0
-3 -16 0
-3 -17 0
-3 -18 0
-3 -19 0
-3 -20 0
-3 -21 0
-3 -22 0
-3 -23 0
-3 -24 0
-3 -25 0
-4 -5 0
-4 -6 0
-4 -7 0
-4 -8 0
-4 -9 0
-4 -10 0
-4 -11 0
-4 -12 0
-4 -13 0
-4 -14 0
-4 -15 0
-4 -16 0
-4 -17 0
-4 -18 0
-4 -19 0
-4 -20 0
-4 -21 0
-4 -22 0
-4 -23 0
-4 -24 0
-4 -25 0
-5 -6 0
-5 -7 0
-5 -8 0
-5 -9 0
-5 -10 0
-5 -11 0
-5 -12 0
-5 -13 0
-5 -14 0
-5 -15 0
-5 -16 0
-5 -17 0
-5 -18 0
-5 -19 0
-5 -20 0
-5 -21 0
-5 -22 0
-5 -23 0
-5 -24 0
-5 -25 0
-6 -7 0
-6 -8 0
-6 -9 0
-6 -10 0
-6 -11 0
-6 -12 0
-6 -13 0
-6 -14 0
-6 -15 0
-6 -16 0
-6 -17 0
-6 -18 0
-6 -19 0
-6 -20 0
-6 -21 0
-6 -22 0
-6 -23 0
-6 -24 0
-6 -25 0
-7 -8 0
-7 -9 0
-7 -10 0
-7 -11 0
-7 -12 0
-7 -13 0
-7 -14 0
-7 -15 0
-7 -16 0
-7 -17 0
-7 -18 0
-7 -19 0
-7 -20 0
-7 -21 0
-7 -22 0
-7 -23 0
-7 -24 0
-7 -25 0
-8 -9 0
-8 -10 0
-8 -11 0
-8 -12 0
-8 -13 0
-8 -14 0
-8 -15 0
-8 -16 0
-8 -17 0
-8 -18 0
-8 -19 0
-8 -20 0
-8 -21 0
-8 -22 0
-8 -23 0
-8 -24 0
-8 -25 0
-9 -10 0
-9 -11 0
-9 -12 0
-9 -13 0
-9 -14 0
-9 -15 0
-9 -16 0
-9 -17 0
-9 -18 0
-9 -19 0
-9 -20 0
-9 -21 0
-9 -22 0
-9 -23 0
-9 -24 0
-9 -25 0
-10 -11 0
-10 -12 0
-10 -13 0
-10 -14 0
-10 -15 0
-10 -16 0
-10 -17 0
-10 -18 0
-10 -19 0
-10 -20 0
-10 -21 0
-10 -22 0
-10 -23 0
-10 -24 0
-10 -25 0
-11 -12 0
-11 -13 0
-11 -14 0
-11 -15 0
-11 -16 0
-11 -17 0
-11 -18 0
-11 -19 0
-11 -20 0
-11 -21 0
-11 -22 0
-11 -23 0
-11 -24 0
-11 -25 0
-12 -13 0
-12 -14 0
-12 -15 0
-12 -16 0
-12 -17 0
-12 -18 0
-12 -19 0
-12 -20 0
-12 -21 0
-12 -22 0
-12 -23 0
-12 -24 0
-12 -25 0
-13 -14 0
-13 -15 0
-13 -16 0
-13 -17 0
-13 -18 0
-13 -19 0
-13 -20 0
-13 -21 0
-13 -22 0
-13 -23 0
-13 -24 0
-13 -25 0
-14 -15 0
-14 -16 0
-14 -17 0
-14 -18 0
-14 -19 0
-14 -20 0
-14 -21 0
-14 -22 0
-14 -23 0
-14 -24 0
-14 -25 0
-15 -16 0
-15 -17 0
-15 -18 0
-15 -19 0
-15 -20 0
-15 -21 0
-15 -22 0
-15 -23 0
-15 -24 0
-15 -25 0
-16 -17 0
-16 -18 0
-16 -19 0
-16 -20 0
-16 -21 0
-16 -22 0
-16 -23 0
-16 -24 0
-16 -25 0
-17 -18 0
-17 -19 0
-17 -20 0
-17 -21 0
-17 -22 0
-17 -23 0
-17 -24 0
-17 -25 0
-18 -19 0
-18 -20 0
-18 -21 0
-18 -22 0
-18 -23 0
-18 -24 0
-18 -25 0
-19 -20 0
-19 -21 0
-19 -22 0
-19 -23 0
-19 -24 0
-19 -25 0
-20 -21 0
-20 -22 0
-20 -23 0
-20 -24 0
-20 -25 0
-21 -22 0
-21 -23 0
-21 -24 0
-21 -25 0
-22 -23 0
-22 -24 0
-22 -25 0
-23 -24 0
-23 -25 0
-24 -25 0
-26 -27 0
-26 -28 0
-26 -29 0
-26 -30 0
-26 -31 0
-26 -32 0
-26 -33 0
-26 -34 0
-26 -35 0
-26 -36 0
-26 -37 0
-26 -38 0
-26 -39 0
-26 -40 0
-26 -41 0
-26 -42 0
-26 -43 0
-26 -44 0
-26 -45 0
-26 -46 0
-26 -47 0
-26 -48 0
-26 -49 0
-26 -50 0
-27 -28 0
-27 -29 0
-27 -30 0
-27 -31 0
-27 -32 0
-27 -33 0
-27 -34 0
-27 -35 0
-27 -36 0
-27 -37 0
-27 -38 0
-27 -39 0
-27 -40 0
-27 -41 0
-27 -42 0
-27 -43 0
-27 -44 0
-27 -45 0
-27 -46 0
-27 -47 0
-27 -48 0
-27 -49 0
-27 -50 0
-28 -29 0
-28 -30 0
-28 -31 0
-28 -32 0
-28 -33 0
-28 -34 0
-28 -35 0
-28 -36 0
-28 -37 0
-28 -38 0
-28 -39 0
-28 -40 0
-28 -41 0
-28 -42 0
-28 -43 0
-28 -44 0
-28 -45 0
-28 -46 0
-28 -47 0
-28 -48 0
-28 -49 0
-28 -50 0
-29 -30 0
-29 -31 0
-29 -32 0
-29 -33 0
-29 -34 0
-29 -35 0
-29 -36 0
-29 -37 0
-29 -38 0
-29 -39 0
-29 -40 0
-29 -41 0
-29 -42 0
-29 -43 0
-29 -44 0
-29 -45 0
-29 -46 0
-29 -47 0
-29 -48 0
-29 -49 0
-29 -50 0
-30 -31 0
-30 -32 0
-30 -33 0
-30 -34 0
-30 -35 0
-30 -36 0
-30 -37 0
-30 -38 0
-30 -39 0
-30 -40 0
-30 -41 0
-30 -42 0
-30 -43 0
-30 -44 0
-30 -45 0
-30 -46 0
-30 -47 0
-30 -48 0
-30 -49 0
-30 -50 0
-31 -32 0
-31 -33 0
-31 -34 0
-31 -35 0
-31 -36 0
-31 -37 0
-31 -38 0
-31 -39 0
-31 -40 0
-31 -41 0
-31 -42 0
-31 -43 0
-31 -44 0
-31 -45 0
-31 -46 0
-31 -47 0
-31 -48 0
-31 -49 0
-31 -50 0
-32 -33 0
-32 -34 0
-32 -35 0
-32 -36 0
-32 -37 0
-32 -38 0
-32 -39 0
-32 -40 0
-32 -41 0
-32 -42 0
-32 -43 0
-32 -44 0
-32 -45 0
-32 -46 0
-32 -47 0
-32 -48 0
-32 -49 0
-32 -50 0
-33 -34 0
-33 -35 0
-33 -36 0
-33 -37 0
-33 -38 0
-33 -39 0
-33 -40 0
-33 -41 0
-33 -42 0
-33 -43 0
-33 -44 0
-33 -45 0
-33 -46 0
-33 -47 0
-33 -48 0
-33 -49 0
-33 -50 0
-34 -35 0
-34 -36 0
-34 -37 0
-34 -38 0
-34 -39 0
-34 -40 0
-34 -41 0
-34 -42 0
-34 -43 0
-34 -44 0
-34 -45 0
-34 -46 0
-34 -47 0
-34 -48 0
-34 -49 0
-34 -50 0
-35 -36 0
-35 -37 0
-35 -38 0
-35 -39 0
-35 -40 0
-35 -41 0
-35 -42 0
-35 -43 0
-35 -44 0
-35 -45 0
-35 -46 0
-35 -47 0
-35 -48 0
-35 -49 0
-35 -50 0
-36 -37 0
-36 -38 0
-36 -39 0
-36 -40 0
-36 -41 0
-36 -42 0
-36 -43 0
-36 -44 0
-36 -45 0
-36 -46 0
-36 -47 0
-36 -48 0
-36 -49 0
-36 -50 0
-37 -38 0
-37 -39 0
-37 -40 0
-37 -41 0
-37 -42 0
-37 -43 0
-37 -44 0
-37 -45 0
-37 -46 0
-37 -47 0
-37 -48 0
-37 -49 0
-37 -50 0
-38 -39 0
-38 -40 0
-38 -41 0
-38 -42 0
-38 -43 0
-38 -44 0
-38 -45 0
-38 -46 0
-38 -47 0
-38 -48 0
-38 -49 0
-38 -50 0
-39 -40 0
-39 -41 0
-39 -42 0
-39 -43 0
-39 -44 0
-39 -45 0
-39 -46 0
-39 -47 0
-39 -48 0
-39 -49 0
-39 -50 0
-40 -41 0
-40 -42 0
-40 -43 0
-40 -44 0
-40 -45 0
-40 -46 0
-40 -47 0
-40 -48 0
-40 -49 0
-40 -50 0
-41 -42 0
-41 -43 0
-41 -44 0
-41 -45 0
-41 -46 0
-41 -47 0
-41 -48 0
-41 -49 0
-41 -50 0
-42 -43 0
-42 -44 0
-42 -45 0
-42 -46 0
-42 -47 0
-42 -48 0
-42 -49 0
-42 -50 0
-43 -44 0
-43 -45 0
-43 -46 0
-43 -47 0
-43 -48 0
-43 -49 0
-43 -50 0
-44 -45 0
-44 -46 0
-44 -47 0
-44 -48 0
-44 -49 0
-44 -50 0
-45 -46 0
-45 -47 0
-45 -48 0
-45 -49 0
-45 -50 0
-46 -47 0
-46 -48 0
-46 -49 0
-46 -50 0
-47 -48 0
-47 -49 0
-47 -50 0
-48 -49 0
-48 -50 0
-49 -50 0
-51 -52 0
-51 -53 0
-51 -54 0
-51 -55 0
-51 -56 0
-51 -57 0
-51 -58 0
-51 -59 0
-51 -60 0
-51 -61 0
-51 -62 0
-51 -63 0
-51 -64 0
-51 -65 0
-51 -66 0
-51 -67 0
-51 -68 0
-51 -69 0
-51 -70 0
-51 -71 0
-51 -72 0
-51 -73 0
-51 -74 0
-51 -75 0
-52 -53 0
-52 -54 0
-52 -55 0
-52 -56 0
-52 -57 0
-52 -58 0
-52 -59 0
-52 -60 0
-52 -61 0
-52 -62 0
-52 -63 0
-52 -64 0
-52 -65 0
-52 -66 0
-52 -67 0
-52 -68 0
-52 -69 0
-52 -70 0
-52 -71 0
-52 -72 0
-52 -73 0
-52 -74 0
-52 -75 0
-53 -54 0
-53 -55 0
-53 -56 0
-53 -57 0
-53 -58 0
-53 -59 0
-53 -60 0
-53 -61 0
-53 -62 0
-53 -63 0
-53 -64 0
-53 -65 0
-53 -66 0
-53 -67 0
-53 -68 0
-53 -69 0
-53 -70 0
-53 -71 0
-53 -72 0
-53 -73 0
-53 -74 0
-53 -75 0
-54 -55 0
-54 -56 0
-54 -57 0
-54 -58 0
-54 -59 0
-54 -60 0
-54 -61 0
-54 -62 0
-54 -63 0
-54 -64 0
-54 -65 0
-54 -66 0
-54 -67 0
-54 -68 0
-54 -69 0
-54 -70 0
-54 -71 0
-54 -72 0
-54 -73 0
-54 -74 0
-54 -75 0
-55 -56 0
-55 -57 0
-55 -58 0
-55 -59 0
-55 -60 0
-55 -61 0
-55 -62 0
-55 -63 0
-55 -64 0
-55 -65 0
-55 -66 0
-55 -67 0
-55 -68 0
-55 -69 0
-55 -70 0
-55 -71 0
-55 -72 0
-55 -73 0
-55 -74 0
-55 -75 0
-56 -57 0
-56 -58 0
-56 -59 0
-56 -60 0
-56 -61 0
-56 -62 0
-56 -63 0
-56 -64 0
-56 -65 0
-56 -66 0
-56 -67 0
-56 -68 0
-56 -69 0
-56 -70 0
-56 -71 0
-56 -72 0
-56 -73 0
-56 -74 0
-56 -75 0
-57 -58 0
-57 -59 0
-57 -60 0
-57 -61 0
-57 -62 0
-57 -63 0
-57 -64 0
-57 -65 0
-57 -66 0
-57 -67 0
-57 -68 0
-57 -69 0
-57 -70 0
-57 -71 0
-57 -72 0
-57 -73 0
-57 -74 0
-57 -75 0
-58 -59 0
-58 -60 0
-58 -61 0
-58 -62 0
-58 -63 0
-58 -64 0
-58 -65 0
-58 -66 0
-58 -67 0
-58 -68 0
-58 -69 0
-58 -70 0
-58 -71 0
-58 -72 0
-58 -73 0
-58 -74 0
-58 -75 0
-59 -60 0
-59 -61 0
-59 -62 0
-59 -63 0
-59 -64 0
-59 -65 0
-59 -66 0
-59 -67 0
-59 -68 0
-59 -69 0
-59 -70 0
-59 -71 0
-59 -72 0
-59 -73 0
-59 -74 0
-59 -75 0
-60 -61 0
-60 -62 0
-60 -63 0
-60 -64 0
-60 -65 0
-60 -66 0
-60 -67 0
-60 -68 0
-60 -69 0
-60 -70 0
-60 -71 0
-60 -72 0
-60 -73 0
-60 -74 0
-60 -75 0
-61 -62 0
-61 -63 0
-61 -64 0
-61 -65 0
-61 -66 0
-61 -67 0
-61 -68 0
-61 -69 0
-61 -70 0
-61 -71 0
-61 -72 0
-61 -73 0
-61 -74 0
-61 -75 0
-62 -63 0
-62 -64 0
-62 -65 0
-62 -66 0
-62 -67 0
-62 -68 0
-62 -69 0
-62 -70 0
-62 -71 0
-62 -72 0
-62 -73 0
-62 -74 0
-62 -75 0
-63 -64 0
-63 -65 0
-63 -66 0
-63 -67 0
-63 -68 0
-63 -69 0
-63 -70 0
-63 -71 0
-63 -72 0
-63 -73 0
-63 -74 0
-63 -75 0
-64 -65 0
-64 -66 0
-64 -67 0
-64 -68 0
-64 -69 0
-64 -70 0
-64 -71 0
-64 -72 0
-64 -73 0
-64 -74 0
-64 -75 0
-65 -66 0
-65 -67 0
-65 -68 0
-65 -69 0
-65 -70 0
-65 -71 0
-65 -72 0
-65 -73 0
-65 -74 0
-65 -75 0
-66 -67 0
-66 -68 0
-66 -69 0
-66 -70 0
-66 -71 0
-66 -72 0
-66 -73 0
-66 -74 0
-66 -75 0
-67 -68 0
-67 -69 0
-67 -70 0
-67 -71 0
-67 -72 0
-67 -73 0
-67 -74 0
-67 -75 0
-68 -69 0
-68 -70 0
-68 -71 0
-68 -72 0
-68 -73 0
-68 -74 0
-68 -75 0
-69 -70 0
-69 -71 0
-69 -72 0
-69 -73 0
-69 -74 0
-69 -75 0
-70 -71 0
-70 -72 0
-70 -73 0
-70 -74 0
-70 -75 0
-71 -72 0
-71 -73 0
-71 -74 0
-71 -75 0
-72 -73 0
-72 -74 0
-72 -75 0
-73 -74 0
-73 -75 0
-74 -75 0
-76 -77 0
-76 -78 0
-76 -79 0
-76 -80 0
-76 -81 0
-76 -82 0
-76 -83 0
-76 -84 0
-76 -85 0
-76 -86 0
-76 -87 0
-76 -88 0
-76 -89 0
-76 -90 0
-76 -91 0
-76 -92 0
-76 -93 0
-76 -94 0
-76 -95 0
-76 -96 0
-76 -97 0
-76 -98 0
-76 -99 0
-76 -100 0
-77 -78 0
-77 -79 0
-77 -80 0
-77 -81 0
-77 -82 0
-77 -83 0
-77 -84 0
-77 -85 0
-77 -86 0
-77 -87 0
-77 -88 0
-77 -89 0
-77 -90 0
-77 -91 0
-77 -92 0
-77 -93 0
-77 -94 0
-77 -95 0
-77 -96 0
-77 -97 0
-77 -98 0
-77 -99 0
-77 -100 0
-78 -79 0
-78 -80 0
-78 -81 0
-78 -82 0
-78 -83 0
-78 -84 0
-78 -85 0
-78 -86 0
-78 -87 0
-78 -88 0
-78 -89 0
-78 -90 0
-78 -91 0
-78 -92 0
-78 -93 0
-78 -94 0
-78 -95 0
-78 -96 0
-78 -97 0
-78 -98 0
-78 -99 0
-78 -100 0
-79 -80 0
-79 -81 0
-79 -82 0
-79 -83 0
-79 -84 0
-79 -85 0
-79 -86 0
-79 -87 0
-79 -88 0
-79 -89 0
-79 -90 0
-79 -91 0
-79 -92 0
-79 -93 0
-79 -94 0
-79 -95 0
-79 -96 0
-79 -97 0
-79 -98 0
-79 -99 0
-79 -100 0
-80 -81 0
-80 -82 0
-80 -83 0
-80 -84 0
-80 -85 0
-80 -86 0
-80 -87 0
-80 -88 0
-80 -89 0
-80 -90 0
-80 -91 0
-80 -92 0
-80 -93 0
-80 -94 0
-80 -95 0
-80 -96 0
-80 -97 0
-80 -98 0
-80 -99 0
-80 -100 0
-81 -82 0
-81 -83 0
-81 -84 0
-81 -85 0
-81 -86 0
-81 -87 0
-81 -88 0
-81 -89 0
-81 -90 0
-81 -91 0
-81 -92 0
-81 -93 0
-81 -94 0
-81 -95 0
-81 -96 0
-81 -97 0
-81 -98 0
-81 -99 0
-81 -100 0
-82 -83 0
-82 -84 0
-82 -85 0
-82 -86 0
-82 -87 0
-82 -88 0
-82 -89 0
-82 -90 0
-82 -91 0
-82 -92 0
-82 -93 0
-82 -94 0
-82 -95 0
-82 -96 0
-82 -97 0
-82 -98 0
-82 -99 0
-82 -100 0
-83 -84 0
-83 -85 0
-83 -86 0
-83 -87 0
-83 -88 0
-83 -89 0
-83 -90 0
-83 -91 0
-83 -92 0
-83 -93 0
-83 -94 0
-83 -95 0
-83 -96 0
-83 -97 0
-83 -98 0
-83 -99 0
-83 -100 0
-84 -85 0
-84 -86 0
-84 -87 0
-84 -88 0
-84 -89 0
-84 -90 0
-84 -91 0
-84 -92 0
-84 -93 0
-84 -94 0
-84 -95 0
-84 -96 0
-84 -97 0
-84 -98 0
-84 -99 0
-84 -100 0
-85 -86 0
-85 -87 0
-85 -88 0
-85 -89 0
-85 -90 0
-85 -91 0
-85 -92 0
-85 -93 0
-85 -94 0
-85 -95 0
-85 -96 0
-85 -97 0
-85 -98 0
-85 -99 0
-85 -100 0
-86 -87 0
-86 -88 0
-86 -89 0
-86 -90 0
-86 -91 0
-86 -92 0
-86 -93 0
-86 -94 0
-86 -95 0
-86 -96 0
-86 -97 0
-86 -98 0
-86 -99 0
-86 -100 0
-87 -88 0
-87 -89 0
-87 -90 0
-87 -91 0
-87 -92 0
-87 -93 0
-87 -94 0
-87 -95 0
-87 -96 0
-87 -97 0
-87 -98 0
-87 -99 0
-87 -100 0
-88 -89 0
-88 -90 0
-88 -91 0
-88 -92 0
-88 -93 0
-88 -94 0
-88 -95 0
-88 -96 0
-88 -97 0
-88 -98 0
-88 -99 0
-88 -100 0
-89 -90 0
-89 -91 0
-89 -92 0
-89 -93 0
-89 -94 0
-89 -95 0
-89 -96 0
-89 -97 0
-89 -98 0
-89 -99 0
-89 -100 0
-90 -91 0
-90 -92 0
-90 -93 0
-90 -94 0
-90 -95 0
-90 -96 0
-90 -97 0
-90 -98 0
-90 -99 0
-90 -100 0
-91 -92 0
-91 -93 0
-91 -94 0
-91 -95 0
-91 -96 0
-91 -97 0
-91 -98 0
-91 -99 0
-91 -100 0
-92 -93 0
-92 -94 0
-92 -95 0
-92 -96 0
-92 -97 0
-92 -98 0
-92 -99 0
-92 -100 0
-93 -94 0
-93 -95 0
-93 -96 0
-93 -97 0
-93 -98 0
-93 -99 0
-93 -100 0
-94 -95 0
-94 -96 0
-94 -97 0
-94 -98 0
-94 -99 0
-94 -100 0
-95 -96 0
-95 -97 0
-95 -98 0
-95 -99 0
-95 -100 0
-96 -97 0
-96 -98 0
-96 -99 0
-96 -100 0
-97 -98 0
-97 -99 0
-97 -100 0
-98 -99 0
-98 -100 0
-99 -100 0
-101 -102 0
-101 -103 0
-101 -104 0
-101 -105 0
-101 -106 0
-101 -107 0
-101 -108 0
-101 -109 0
-101 -110 0
-101 -111 0
-101 -112 0
-101 -113 0
-101 -114 0
-101 -115 0
-101 -116 0
-101 -117 0
-101 -118 0
-101 -119 0
-101 -120 0
-101 -121 0
-101 -122 0
-101 -123 0
-101 -124 0
-101 -125 0
-102 -103 0
-102 -104 0
-102 -105 0
-102 -106 0
-102 -107 0
-102 -108 0
-102 -109 0
-102 -110 0
-102 -111 0
-102 -112 0
-102 -113 0
-102 -114 0
-102 -115 0
-102 -116 0
-102 -117 0
-102 -118 0
-102 -119 0
-102 -120 0
-102 -121 0
-102 -122 0
-102 -123 0
-102 -124 0
-102 -125 0
-103 -104 0
-103 -105 0
-103 -106 0
-103 -107 0
-103 -108 0
-103 -109 0
-103 -110 0
-103 -111 0
-103 -112 0
-103 -113 0
-103 -114 0
-103 -115 0
-103 -116 0
-103 -117 0
-103 -118 0
-103 -119 0
-103 -120 0
-103 -121 0
-103 -122 0
-103 -123 0
-103 -124 0
-103 -125 0
-104 -105 0
-104 -106 0
-104 -107 0
-104 -108 0
-104 -109 0
-104 -110 0
-104 -111 0
-104 -112 0
-104 -113 0
-104 -114 0
-104 -115 0
-104 -116 0
-104 -117 0
-104 -118 0
-104 -119 0
-104 -120 0
-104 -121 0
-104 -122 0
-104 -123 0
-104 -124 0
-104 -125 0
-105 -106 0
-105 -107 0
-105 -108 0
-105 -109 0
-105 -110 0
-105 -111 0
-105 -112 0
-105 -113 0
-105 -114 0
-105 -115 0
-105 -116 0
-105 -117 0
-105 -118 0
-105 -119 0
-105 -120 0
-105 -121 0
-105 -122 0
-105 -123 0
-105 -124 0
-105 -125 0
-106 -107 0
-106 -108 0
-106 -109 0
-106 -110 0
-106 -111 0
-106 -112 0
-106 -113 0
-106 -114 0
-106 -115 0
-106 -116 0
-106 -117 0
-106 -118 0
-106 -119 0
-106 -120 0
-106 -121 0
-106 -122 0
-106 -123 0
-106 -124 0
-106 -125 0
-107 -108 0
-107 -109 0
-107 -110 0
-107 -111 0
-107 -112 0
-107 -113 0
-107 -114 0
-107 -115 0
-107 -116 0
-107 -117 0
-107 -118 0
-107 -119 0
-107 -120 0
-107 -121 0
-107 -122 0
-107 -123 0
-107 -124 0
-107 -125 0
-108 -109 0
-108 -110 0
-108 -111 0
-108 -112 0
-108 -113 0
-108 -114 0
-108 -115 0
-108 -116 0
-108 -117 0
-108 -118 0
-108 -119 0
-108 -120 0
-108 -121 0
-108 -122 0
-108 -123 0
-108 -124 0
-108 -125 0
-109 -110 0
-109 -111 0
-109 -112 0
-109 -113 0
-109 -114 0
-109 -115 0
-109 -116 0
-109 -117 0
-109 -118 0
-109 -119 0
-109 -120 0
-109 -121 0
-109 -122 0
-109 -123 0
-109 -124 0
-109 -125 0
-110 -111 0
-110 -112 0
-110 -113 0
-110 -114 0
-110 -115 0
-110 -116 0
-110 -117 0
-110 -118 0
-110 -119 0
-110 -120 0
-110 -121 0
-110 -122 0
-110 -123 0
-110 -124 0
-110 -125 0
-111 -112 0
-111 -113 0
-111 -114 0
-111 -115 0
-111 -116 0
-111 -117 0
-111 -118 0
-111 -119 0
-111 -120 0
-111 -121 0
-111 -122 0
-111 -123 0
-111 -124 0
-111 -125 0
-112 -113 0
-112 -114 0
-112 -115 0
-112 -116 0
-112 -117 0
-112 -118 0
-112 -119 0
-112 -120 0
-112 -121 0
-112 -122 0
-112 -123 0
-112 -124 0
-112 -125 0
-113 -114 0
-113 -115 0
-113 -116 0
-113 -117 0
-113 -118 0
-113 -119 0
-113 -120 0
-113 -121 0
-113 -122 0
-113 -123 0
-113 -124 0
-113 -125 0
-114 -115 0
-114 -116 0
-114 -117 0
-114 -118 0
-114 -119 0
-114 -120 0
-114 -121 0
-114 -122 0
-114 -123 0
-114 -124 0
-114 -125 0
-115 -116 0
-115 -117 0
-115 -118 0
-115 -119 0
-115 -120 0
-115 -121 0
-115 -122 0
-115 -123 0
-115 -124 0
-115 -125 0
-116 -117 0
-116 -118 0
-116 -119 0
-116 -120 0
-116 -121 0
-116 -122 0
-116 -123 0
-116 -124 0
-116 -125 0
-117 -118 0
-117 -119 0
-117 -120 0
-117 -121 0
-117 -122 0
-117 -123 0
-117 -124 0
-117 -125 0
-118 -119 0
-118 -120 0
-118 -121 0
-118 -122 0
-118 -123 0
-118 -124 0
-118 -125 0
-119 -120 0
-119 -121 0
-119 -122 0
-119 -123 0
-119 -124 0
-119 -125 0
-120 -121 0
-120 -122 0
-120 -123 0
-120 -124 0
-120 -125 0
-121 -122 0
-121 -123 0
-121 -124 0
-121 -125 0
-122 -123 0
-122 -124 0
-122 -125 0
-123 -124 0
-123 -125 0
-124 -125 0
-126 -127 0
-126 -128 0
-126 -129 0
-126 -130 0
-126 -131 0
-126 -132 0
-126 -133 0
-126 -134 0
-126 -135 0
-126 -136 0
-126 -137 0
-126 -138 0
-126 -139 0
-126 -140 0
-126 -141 0
-126 -142 0
-126 -143 0
-126 -144 0
-126 -145 0
-126 -146 0
-126 -147 0
-126 -148 0
-126 -149 0
-126 -150 0
-127 -128 0
-127 -129 0
-127 -130 0
-127 -131 0
-127 -132 0
-127 -133 0
-127 -134 0
-127 -135 0
-127 -136 0
-127 -137 0
-127 -138 0
-127 -139 0
-127 -140 0
-127 -141 0
-127 -142 0
-127 -143 0
-127 -144 0
-127 -145 0
-127 -146 0
-127 -147 0
-127 -148 0
-127 -149 0
-127 -150 0
-128 -129 0
-128 -130 0
-128 -131 0
-128 -132 0
-128 -133 0
-128 -134 0
-128 -135 0
-128 -136 0
-128 -137 0
-128 -138 0
-128 -139 0
-128 -140 0
-128 -141 0
-128 -142 0
-128 -143 0
-128 -144 0
-128 -145 0
-128 -146 0
-128 -147 0
-128 -148 0
-128 -149 0
-128 -150 0
-129 -130 0
-129 -131 0
-129 -132 0
-129 -133 0
-129 -134 0
-129 -135 0
-129 -136 0
-129 -137 0
-129 -138 0
-129 -139 0
-129 -140 0
-129 -141 0
-129 -142 0
-129 -143 0
-129 -144 0
-129 -145 0
-129 -146 0
-129 -147 0
-129 -148 0
-129 -149 0
-129 -150 0
-130 -131 0
-130 -132 0
-130 -133 0
-130 -134 0
-130 -135 0
-130 -136 0
-130 -137 0
-130 -138 0
-130 -139 0
-130 -140 0
-130 -141 0
-130 -142 0
-130 -143 0
-130 -144 0
-130 -145 0
-130 -146 0
-130 -147 0
-130 -148 0
-130 -149 0
-130 -150 0
-131 -132 0
-131 -133 0
-131 -134 0
-131 -135 0
-131 -136 0
-131 -137 0
-131 -138 0
-131 -139 0
-131 -140 0
-131 -141 0
-131 -142 0
-131 -143 0
-131 -144 0
-131 -145 0
-131 -146 0
-131 -147 0
-131 -148 0
-131 -149 0
-131 -150 0
-132 -133 0
-132 -134 0
-132 -135 0
-132 -136 0
-132 -137 0
-132 -138 0
-132 -139 0
-132 -140 0
-132 -141 0
-132 -142 0
-132 -143 0
-132 -144 0
-132 -145 0
-132 -146 0
-132 -147 0
-132 -148 0
-132 -149 0
-132 -150 0
-133 -134 0
-133 -135 0
-133 -136 0
-133 -137 0
-133 -138 0
-133 -139 0
-133 -140 0
-133 -141 0
-133 -142 0
-133 -143 0
-133 -144 0
-133 -145 0
-133 -146 0
-133 -147 0
-133 -148 0
-133 -149 0
-133 -150 0
-134 -135 0
-134 -136 0
-134 -137 0
-134 -138 0
-134 -139 0
-134 -140 0
-134 -141 0
-134 -142 0
-134 -143 0
-134 -144 0
-134 -145 0
-134 -146 0
-134 -147 0
-134 -148 0
-134 -149 0
-134 -150 0
-135 -136 0
-135 -137 0
-135 -138 0
-135 -139 0
-135 -140 0
-135 -141 0
-135 -142 0
-135 -143 0
-135 -144 0
-135 -145 0
-135 -146 0
-135 -147 0
-135 -148 0
-135 -149 0
-135 -150 0
-136 -137 0
-136 -138 0
-136 -139 0
-136 -140 0
-136 -141 0
-136 -142 0
-136 -143 0
-136 -144 0
-136 -145 0
-136 -146 0
-136 -147 0
-136 -148 0
-136 -149 0
-136 -150 0
-137 -138 0
-137 -139 0
-137 -140 0
-137 -141 0
-137 -142 0
-137 -143 0
-137 -144 0
-137 -145 0
-137 -146 0
-137 -147 0
-137 -148 0
-137 -149 0
-137 -150 0
-138 -139 0
-138 -140 0
-138 -141 0
-138 -142 0
-138 -143 0
-138 -144 0
-138 -145 0
-138 -146 0
-138 -147 0
-138 -148 0
-138 -149 0
-138 -150 0
-139 -140 0
-139 -141 0
-139 -142 0
-139 -143 0
-139 -144 0
-139 -145 0
-139 -146 0
-139 -147 0
-139 -148 0
-139 -149 0
-139 -150 0
-140 -141 0
-140 -142 0
-140 -143 0
-140 -144 0
-140 -145 0
-140 -146 0
-140 -147 0
-140 -148 0
-140 -149 0
-140 -150 0
-141 -142 0
-141 -143 0
-141 -144 0
-141 -145 0
-141 -146 0
-141 -147 0
-141 -148 0
-141 -149 0
-141 -150 0
-142 -143 0
-142 -144 0
-142 -145 0
-142 -146 0
-142 -147 0
-142 -148 0
-142 -149 0
-142 -150 0
-143 -144 0
-143 -145 0
-143 -146 0
-143 -147 0
-143 -148 0
-143 -149 0
-143 -150 0
-144 -145 0
-144 -146 0
-144 -147 0
-144 -148 0
-144 -149 0
-144 -150 0
-145 -146 0
-145 -147 0
-145 -148 0
-145 -149 0
-145 -150 0
-146 -147 0
-146 -148 0
-146 -149 0
-146 -150 0
-147 -148 0
-147 -149 0
-147 -150 0
-148 -149 0
-148 -150 0
-149 -150 0
-151 -152 0
-151 -153 0
-151 -154 0
-151 -155 0
-151 -156 0
-151 -157 0
-151 -158 0
-151 -159 0
-151 -160 0
-151 -161 0
-151 -162 0
-151 -163 0
-151 -164 0
-151 -165 0
-151 -166 0
-151 -167 0
-151 -168 0
-151 -169 0
-151 -170 0
-151 -171 0
-151 -172 0
-151 -173 0
-151 -174 0
-151 -175 0
-152 -153 0
-152 -154 0
-152 -155 0
-152 -156 0
-152 -157 0
-152 -158 0
-152 -159 0
-152 -160 0
-152 -161 0
-152 -162 0
-152 -163 0
-152 -164 0
-152 -165 0
-152 -166 0
-152 -167 0
-152 -168 0
-152 -169 0
-152 -170 0
-152 -171 0
-152 -172 0
-152 -173 0
-152 -174 0
-152 -175 0
-153 -154 0
-153 -155 0
-153 -156 0
-153 -157 0
-153 -158 0
-153 -159 0
-153 -160 0
-153 -161 0
-153 -162 0
-153 -163 0
-153 -164 0
-153 -165 0
-153 -166 0
-153 -167 0
-153 -168 0
-153 -169 0
-153 -170 0
-153 -171 0
-153 -172 0
-153 -173 0
-153 -174 0
-153 -175 0
-154 -155 0
-154 -156 0
-154 -157 0
-154 -158 0
-154 -159 0
-154 -160 0
-154 -161 0
-154 -162 0
-154 -163 0
-154 -164 0
-154 -165 0
-154 -166 0
-154 -167 0
-154 -168 0
-154 -169 0
-154 -170 0
-154 -171 0
-154 -172 0
-154 -173 0
-154 -174 0
-154 -175 0
-155 -156 0
-155 -157 0
-155 -158 0
-155 -159 0
-155 -160 0
-155 -161 0
-155 -162 0
-155 -163 0
-155 -164 0
-155 -165 0
-155 -166 0
-155 -167 0
-155 -168 0
-155 -169 0
-155 -170 0
-155 -171 0
-155 -172 0
-155 -173 0
-155 -174 0
-155 -175 0
-156 -157 0
-156 -158 0
-156 -159 0
-156 -160 0
-156 -161 0
-156 -162 0
-156 -163 0
-156 -164 0
-156 -165 0
-156 -166 0
-156 -167 0
-156 -168 0
-156 -169 0
-156 -170 0
-156 -171 0
-156 -172 0
-156 -173 0
-156 -174 0
-156 -175 0
-157 -158 0
-157 -159 0
-157 -160 0
-157 -161 0
-157 -162 0
-157 -163 0
-157 -164 0
-157 -165 0
-157 -166 0
-157 -167 0
-157 -168 0
-157 -169 0
-157 -170 0
-157 -171 0
-157 -172 0
-157 -173 0
-157 -174 0
-157 -175 0
-158 -159 0
-158 -160 0
-158 -161 0
-158 -162 0
-158 -163 0
-158 -164 0
-158 -165 0
-158 -166 0
-158 -167 0
-158 -168 0
-158 -169 0
-158 -170 0
-158 -171 0
-158 -172 0
-158 -173 0
-158 -174 0
-158 -175 0
-159 -160 0
-159 -161 0
-159 -162 0
-159 -163 0
-159 -164 0
-159 -165 0
-159 -166 0
-159 -167 0
-159 -168 0
-159 -169 0
-159 -170 0
-159 -171 0
-159 -172 0
-159 -173 0
-159 -174 0
-159 -175 0
-160 -161 0
-160 -162 0
-160 -163 0
-160 -164 0
-160 -165 0
-160 -166 0
-160 -167 0
-160 -168 0
-160 -169 0
-160 -170 0
-160 -171 0
-160 -172 0
-160 -173 0
-160 -174 0
-160 -175 0
-161 -162 0
-161 -163 0
-161 -164 0
-161 -165 0
-161 -166 0
-161 -167 0
-161 -168 0
-161 -169 0
-161 -170 0
-161 -171 0
-161 -172 0
-161 -173 0
-161 -174 0
-161 -175 0
-162 -163 0
-162 -164 0
-162 -165 0
-162 -166 0
-162 -167 0
-162 -168 0
-162 -169 0
-162 -170 0
-162 -171 0
-162 -172 0
-162 -173 0
-162 -174 0
-162 -175 0
-163 -164 0
-163 -165 0
-163 -166 0
-163 -167 0
-163 -168 0
-163 -169 0
-163 -170 0
-163 -171 0
-163 -172 0
-163 -173 0
-163 -174 0
-163 -175 0
-164 -165 0
-164 -166 0
-164 -167 0
-164 -168 0
-164 -169 0
-164 -170 0
-164 -171 0
-164 -172 0
-164 -173 0
-164 -174 0
-164 -175 0
-165 -166 0
-165 -167 0
-165 -168 0
-165 -169 0
-165 -170 0
-165 -171 0
-165 -172 0
-165 -173 0
-165 -174 0
-165 -175 0
-166 -167 0
-166 -168 0
-166 -169 0
-166 -170 0
-166 -171 0
-166 -172 0
-166 -173 0
-166 -174 0
-166 -175 0
-167 -168 0
-167 -169 0
-167 -170 0
-167 -171 0
-167 -172 0
-167 -173 0
-167 -174 0
-167 -175 0
-168 -169 0
-168 -170 0
-168 -171 0
-168 -172 0
-168 -173 0
-168 -174 0
-168 -175 0
-169 -170 0
-169 -171 0
-169 -172 0
-169 -173 0
-169 -174 0
-169 -175 0
-170 -171 0
-170 -172 0
-170 -173 0
-170 -174 0
-170 -175 0
-171 -172 0
-171 -173 0
-171 -174 0
-171 -175 0
-172 -173 0
-172 -174 0
-172 -175 0
-173 -174 0
-173 -175 0
-174 -175 0
-176 -177 0
-176 -178 0
-176 -179 0
-176 -180 0
-176 -181 0
-176 -182 0
-176 -183 0
-176 -184 0
-176 -185 0
-176 -186 0
-176 -187 0
-176 -188 0
-176 -189 0
-176 -190 0
-176 -191 0
-176 -192 0
-176 -193 0
-176 -194 0
-176 -195 0
-176 -196 0
-176 -197 0
-176 -198 0
-176 -199 0
-176 -200 0
-177 -178 0
-177 -179 0
-177 -180 0
-177 -181 0
-177 -182 0
-177 -183 0
-177 -184 0
-177 -185 0
-177 -186 0
-177 -187 0
-177 -188 0
-177 -189 0
-177 -190 0
-177 -191 0
-177 -192 0
-177 -193 0
-177 -194 0
-177 -195 0
-177 -196 0
-177 -197 0
-177 -198 0
-177 -199 0
-177 -200 0
-178 -179 0
-178 -180 0
-178 -181 0
-178 -182 0
-178 -183 0
-178 -184 0
-178 -185 0
-178 -186 0
-178 -187 0
-178 -188 0
-178 -189 0
-178 -190 0
-178 -191 0
-178 -192 0
-178 -193 0
-178 -194 0
-178 -195 0
-178 -196 0
-178 -197 0
-178 -198 0
-178 -199 0
-178 -200 0
-179 -180 0
-179 -181 0
-179 -182 0
-179 -183 0
-179 -184 0
-179 -185 0
-179 -186 0
-179 -187 0
-179 -188 0
-179 -189 0
-179 -190 0
-179 -191 0
-179 -192 0
-179 -193 0
-179 -194 0
-179 -195 0
-179 -196 0
-179 -197 0
-179 -198 0
-179 -199 0
-179 -200 0
-180 -181 0
-180 -182 0
-180 -183 0
-180 -184 0
-180 -185 0
-180 -186 0
-180 -187 0
-180 -188 0
-180 -189 0
-180 -190 0
-180 -191 0
-180 -192 0
-180 -193 0
-180 -194 0
-180 -195 0
-180 -196 0
-180 -197 0
-180 -198 0
-180 -199 0
-180 -200 0
-181 -182 0
-181 -183 0
-181 -184 0
-181 -185 0
-181 -186 0
-181 -187 0
-181 -188 0
-181 -189 0
-181 -190 0
-181 -191 0
-181 -192 0
-181 -193 0
-181 -194 0
-181 -195 0
-181 -196 0
-181 -197 0
-181 -198 0
-181 -199 0
-181 -200 0
-182 -183 0
-182 -184 0
-182 -185 0
-182 -186 0
-182 -187 0
-182 -188 0
-182 -189 0
-182 -190 0
-182 -191 0
-182 -192 0
-182 -193 0
-182 -194 0
-182 -195 0
-182 -196 0
-182 -197 0
-182 -198 0
-182 -199 0
-182 -200 0
-183 -184 0
-183 -185 0
-183 -186 0
-183 -187 0
-183 -188 0
-183 -189 0
-183 -190 0
-183 -191 0
-183 -192 0
-183 -193 0
-183 -194 0
-183 -195 0
-183 -196 0
-183 -197 0
-183 -198 0
-183 -199 0
-183 -200 0
-184 -185 0
-184 -186 0
-184 -187 0
-184 -188 0
-184 -189 0
-184 -190 0
-184 -191 0
-184 -192 0
-184 -193 0
-184 -194 0
-184 -195 0
-184 -196 0
-184 -197 0
-184 -198 0
-184 -199 0
-184 -200 0
-185 -186 0
-185 -187 0
-185 -188 0
-185 -189 0
-185 -190 0
-185 -191 0
-185 -192 0
-185 -193 0
-185 -194 0
-185 -195 0
-185 -196 0
-185 -197 0
-185 -198 0
-185 -199 0
-185 -200 0
-186 -187 0
-186 -188 0
-186 -189 0
-186 -190 0
-186 -191 0
-186 -192 0
-186 -193 0
-186 -194 0
-186 -195 0
-186 -196 0
-186 -197 0
-186 -198 0
-186 -199 0
-186 -200 0
-187 -188 0
-187 -189 0
-187 -190 0
-187 -191 0
-187 -192 0
-187 -193 0
-187 -194 0
-187 -195 0
-187 -196 0
-187 -197 0
-187 -198 0
-187 -199 0
-187 -200 0
-188 -189 0
-188 -190 0
-188 -191 0
-188 -192 0
-188 -193 0
-188 -194 0
-188 -195 0
-188 -196 0
-188 -197 0
-188 -198 0
-188 -199 0
-188 -200 0
-189 -190 0
-189 -191 0
-189 -192 0
-189 -193 0
-189 -194 0
-189 -195 0
-189 -196 0
-189 -197 0
-189 -198 0
-189 -199 0
-189 -200 0
-190 -191 0
-190 -192 0
-190 -193 0
-190 -194 0
-190 -195 0
-190 -196 0
-190 -197 0
-190 -198 0
-190 -199 0
-190 -200 0
-191 -192 0
-191 -193 0
-191 -194 0
-191 -195 0
-191 -196 0
-191 -197 0
-191 -198 0
-191 -199 0
-191 -200 0
-192 -193 0
-192 -194 0
-192 -195 0
-192 -196 0
-192 -197 0
-192 -198 0
-192 -199 0
-192 -200 0
-193 -194 0
-193 -195 0
-193 -196 0
-193 -197 0
-193 -198 0
-193 -199 0
-193 -200 0
-194 -195 0
-194 -196 0
-194 -197 0
-194 -198 0
-194 -199 0
-194 -200 0
-195 -196 0
-195 -197 0
-195 -198 0
-195 -199 0
-195 -200 0
-196 -197 0
-196 -198 0
-196 -199 0
-196 -200 0
-197 -198 0
-197 -199 0
-197 -200 0
-198 -199 0
-198 -200 0
-199 -200 0
-201 -202 0
-201 -203 0
-201 -204 0
-201 -205 0
-201 -206 0
-201 -207 0
-201 -208 0
-201 -209 0
-201 -210 0
-201 -211 0
-201 -212 0
-201 -213 0
-201 -214 0
-201 -215 0
-201 -216 0
-201 -217 0
-201 -218 0
-201 -219 0
-201 -220 0
-201 -221 0
-201 -222 0
-201 -223 0
-201 -224 0
-201 -225 0
-202 -203 0
-202 -204 0
-202 -205 0
-202 -206 0
-202 -207 0
-202 -208 0
-202 -209 0
-202 -210 0
-202 -211 0
-202 -212 0
-202 -213 0
-202 -214 0
-202 -215 0
-202 -216 0
-202 -217 0
-202 -218 0
-202 -219 0
-202 -220 0
-202 -221 0
-202 -222 0
-202 -223 0
-202 -224 0
-202 -225 0
-203 -204 0
-203 -205 0
-203 -206 0
-203 -207 0
-203 -208 0
-203 -209 0
-203 -210 0
-203 -211 0
-203 -212 0
-203 -213 0
-203 -214 0
-203 -215 0
-203 -216 0
-203 -217 0
-203 -218 0
-203 -219 0
-203 -220 0
-203 -221 0
-203 -222 0
-203 -223 0
-203 -224 0
-203 -225 0
-204 -205 0
-204 -206 0
-204 -207 0
-204 -208 0
-204 -209 0
-204 -210 0
-204 -211 0
-204 -212 0
-204 -213 0
-204 -214 0
-204 -215 0
-204 -216 0
-204 -217 0
-204 -218 0
-204 -219 0
-204 -220 0
-204 -221 0
-204 -222 0
-204 -223 0
-204 -224 0
-204 -225 0
-205 -206 0
-205 -207 0
-205 -208 0
-205 -209 0
-205 -210 0
-205 -211 0
-205 -212 0
-205 -213 0
-205 -214 0
-205 -215 0
-205 -216 0
-205 -217 0
-205 -218 0
-205 -219 0
-205 -220 0
-205 -221 0
-205 -222 0
-205 -223 0
-205 -224 0
-205 -225 0
-206 -207 0
-206 -208 0
-206 -209 0
-206 -210 0
-206 -211 0
-206 -212 0
-206 -213 0
-206 -214 0
-206 -215 0
-206 -216 0
-206 -217 0
-206 -218 0
-206 -219 0
-206 -220 0
-206 -221 0
-206 -222 0
-206 -223 0
-206 -224 0
-206 -225 0
-207 -208 0
-207 -209 0
-207 -210 0
-207 -211 0
-207 -212 0
-207 -213 0
-207 -214 0
-207 -215 0
-207 -216 0
-207 -217 0
-207 -218 0
-207 -219 0
-207 -220 0
-207 -221 0
-207 -222 0
-207 -223 0
-207 -224 0
-207 -225 0
-208 -209 0
-208 -210 0
-208 -211 0
-208 -212 0
-208 -213 0
-208 -214 0
-208 -215 0
-208 -216 0
-208 -217 0
-208 -218 0
-208 -219 0
-208 -220 0
-208 -221 0
-208 -222 0
-208 -223 0
-208 -224 0
-208 -225 0
-209 -210 0
-209 -211 0
-209 -212 0
-209 -213 0
-209 -214 0
-209 -215 0
-209 -216 0
-209 -217 0
-209 -218 0
-209 -219 0
-209 -220 0
-209 -221 0
-209 -222 0
-209 -223 0
-209 -224 0
-209 -225 0
-210 -211 0
-210 -212 0
-210 -213 0
-210 -214 0
-210 -215 0
-210 -216 0
-210 -217 0
-210 -218 0
-210 -219 0
-210 -220 0
-210 -221 0
-210 -222 0
-210 -223 0
-210 -224 0
-210 -225 0
-211 -212 0
-211 -213 0
-211 -214 0
-211 -215 0
-211 -216 0
-211 -217 0
-211 -218 0
-211 -219 0
-211 -220 0
-211 -221 0
-211 -222 0
-211 -223 0
-211 -224 0
-211 -225 0
-212 -213 0
-212 -214 0
-212 -215 0
-212 -216 0
-212 -217 0
-212 -218 0
-212 -219 0
-212 -220 0
-212 -221 0
-212 -222 0
-212 -223 0
-212 -224 0
-212 -225 0
-213 -214 0
-213 -215 0
-213 -216 0
-213 -217 0
-213 -218 0
-213 -219 0
-213 -220 0
-213 -221 0
-213 -222 0
-213 -223 0
-213 -224 0
-213 -225 0
-214 -215 0
-214 -216 0
-214 -217 0
-214 -218 0
-214 -219 0
-214 -220 0
-214 -221 0
-214 -222 0
-214 -223 0
-214 -224 0
-214 -225 0
-215 -216 0
-215 -217 0
-215 -218 0
-215 -219 0
-215 -220 0
-215 -221 0
-215 -222 0
-215 -223 0
-215 -224 0
-215 -225 0
-216 -217 0
-216 -218 0
-216 -219 0
-216 -220 0
-216 -221 0
-216 -222 0
-216 -223 0
-216 -224 0
-216 -225 0
-217 -218 0
-217 -219 0
-217 -220 0
-217 -221 0
-217 -222 0
-217 -223 0
-217 -224 0
-217 -225 0
-218 -219 0
-218 -220 0
-218 -221 0
-218 -222 0
-218 -223 0
-218 -224 0
-218 -225 0
-219 -220 0
-219 -221 0
-219 -222 0
-219 -223 0
-219 -224 0
-219 -225 0
-220 -221 0
-220 -222 0
-220 -223 0
-220 -224 0
-220 -225 0
-221 -222 0
-221 -223 0
-221 -224 0
-221 -225 0
-222 -223 0
-222 -224 0
-222 -225 0
-223 -224 0
-223 -225 0
-224 -225 0
-226 -227 0
-226 -228 0
-226 -229 0
-226 -230 0
-226 -231 0
-226 -232 0
-226 -233 0
-226 -234 0
-226 -235 0
-226 -236 0
-226 -237 0
-226 -238 0
-226 -239 0
-226 -240 0
-226 -241 0
-226 -242 0
-226 -243 0
-226 -244 0
-226 -245 0
-226 -246 0
-226 -247 0
-226 -248 0
-226 -249 0
-226 -250 0
-227 -228 0
-227 -229 0
-227 -230 0
-227 -231 0
-227 -232 0
-227 -233 0
-227 -234 0
-227 -235 0
-227 -236 0
-227 -237 0
-227 -238 0
-227 -239 0
-227 -240 0
-227 -241 0
-227 -242 0
-227 -243 0
-227 -244 0
-227 -245 0
-227 -246 0
-227 -247 0
-227 -248 0
-227 -249 0
-227 -250 0
-228 -229 0
-228 -230 0
-228 -231 0
-228 -232 0
-228 -233 0
-228 -234 0
-228 -235 0
-228 -236 0
-228 -237 0
-228 -238 0
-228 -239 0
-228 -240 0
-228 -241 0
-228 -242 0
-228 -243 0
-228 -244 0
-228 -245 0
-228 -246 0
-228 -247 0
-228 -248 0
-228 -249 0
-228 -250 0
-229 -230 0
-229 -231 0
-229 -232 0
-229 -233 0
-229 -234 0
-229 -235 0
-229 -236 0
-229 -237 0
-229 -238 0
-229 -239 0
-229 -240 0
-229 -241 0
-229 -242 0
-229 -243 0
-229 -244 0
-229 -245 0
-229 -246 0
-229 -247 0
-229 -248 0
-229 -249 0
-229 -250 0
-230 -231 0
-230 -232 0
-230 -233 0
-230 -234 0
-230 -235 0
-230 -236 0
-230 -237 0
-230 -238 0
-230 -239 0
-230 -240 0
-230 -241 0
-230 -242 0
-230 -243 0
-230 -244 0
-230 -245 0
-230 -246 0
-230 -247 0
-230 -248 0
-230 -249 0
-230 -250 0
-231 -232 0
-231 -233 0
-231 -234 0
-231 -235 0
-231 -236 0
-231 -237 0
-231 -238 0
-231 -239 0
-231 -240 0
-231 -241 0
-231 -242 0
-231 -243 0
-231 -244 0
-231 -245 0
-231 -246 0
-231 -247 0
-231 -248 0
-231 -249 0
-231 -250 0
-232 -233 0
-232 -234 0
-232 -235 0
-232 -236 0
-232 -237 0
-232 -238 0
-232 -239 0
-232 -240 0
-232 -241 0
-232 -242 0
-232 -243 0
-232 -244 0
-232 -245 0
-232 -246 0
-232 -247 0
-232 -248 0
-232 -249 0
-232 -250 0
-233 -234 0
-233 -235 0
-233 -236 0
-233 -237 0
-233 -238 0
-233 -239 0
-233 -240 0
-233 -241 0
-233 -242 0
-233 -243 0
-233 -244 0
-233 -245 0
-233 -246 0
-233 -247 0
-233 -248 0
-233 -249 0
-233 -250 0
-234 -235 0
-234 -236 0
-234 -237 0
-234 -238 0
-234 -239 0
-234 -240 0
-234 -241 0
-234 -242 0
-234 -243 0
-234 -244 0
-234 -245 0
-234 -246 0
-234 -247 0
-234 -248 0
-234 -249 0
-234 -250 0
-235 -236 0
-235 -237 0
-235 -238 0
-235 -239 0
-235 -240 0
-235 -241 0
-235 -242 0
-235 -243 0
-235 -244 0
-235 -245 0
-235 -246 0
-235 -247 0
-235 -248 0
-235 -249 0
-235 -250 0
-236 -237 0
-236 -238 0
-236 -239 0
-236 -240 0
-236 -241 0
-236 -242 0
-236 -243 0
-236 -244 0
-236 -245 0
-236 -246 0
-236 -247 0
-236 -248 0
-236 -249 0
-236 -250 0
-237 -238 0
-237 -239 0
-237 -240 0
-237 -241 0
-237 -242 0
-237 -243 0
-237 -244 0
-237 -245 0
-237 -246 0
-237 -247 0
-237 -248 0
-237 -249 0
-237 -250 0
-238 -239 0
-238 -240 0
-238 -241 0
-238 -242 0
-238 -243 0
-238 -244 0
-238 -245 0
-238 -246 0
-238 -247 0
-238 -248 0
-238 -249 0
-238 -250 0
-239 -240 0
-239 -241 0
-239 -242 0
-239 -243 0
-239 -244 0
-239 -245 0
-239 -246 0
-239 -247 0
-239 -248 0
-239 -249 0
-239 -250 0
-240 -241 0
-240 -242 0
-240 -243 0
-240 -244 0
-240 -245 0
-240 -246 0
-240 -247 0
-240 -248 0
-240 -249 0
-240 -250 0
-241 -242 0
-241 -243 0
-241 -244 0
-241 -245 0
-241 -246 0
-241 -247 0
-241 -248 0
-241 -249 0
-241 -250 0
-242 -243 0
-242 -244 0
-242 -245 0
-242 -246 0
-242 -247 0
-242 -248 0
-242 -249 0
-242 -250 0
-243 -244 0
-243 -245 0
-243 -246 0
-243 -247 0
-243 -248 0
-243 -249 0
-243 -250 0
-244 -245 0
-244 -246 0
-244 -247 0
-244 -248 0
-244 -249 0
-244 -250 0
-245 -246 0
-245 -247 0
-245 -248 0
-245 -249 0
-245 -250 0
-246 -247 0
-246 -248 0
-246 -249 0
-246 -250 0
-247 -248 0
-247 -249 0
-247 -250 0
-248 -249 0
-248 -250 0
-249 -250 0
-251 -252 0
-251 -253 0
-251 -254 0
-251 -255 0
-251 -256 0
-251 -257 0
-251 -258 0
-251 -259 0
-251 -260 0
-251 -261 0
-251 -262 0
-251 -263 0
-251 -264 0
-251 -265 0
-251 -266 0
-251 -267 0
-251 -268 0
-251 -269 0
-251 -270 0
-251 -271 0
-251 -272 0
-251 -273 0
-251 -274 0
-251 -275 0
-252 -253 0
-252 -254 0
-252 -255 0
-252 -256 0
-252 -257 0
-252 -258 0
-252 -259 0
-252 -260 0
-252 -261 0
-252 -262 0
-252 -263 0
-252 -264 0
-252 -265 0
-252 -266 0
-252 -267 0
-252 -268 0
-252 -269 0
-252 -270 0
-252 -271 0
-252 -272 0
-252 -273 0
-252 -274 0
-252 -275 0
-253 -254 0
-253 -255 0
-253 -256 0
-253 -257 0
-253 -258 0
-253 -259 0
-253 -260 0
-253 -261 0
-253 -262 0
-253 -263 0
-253 -264 0
-253 -265 0
-253 -266 0
-253 -267 0
-253 -268 0
-253 -269 0
-253 -270 0
-253 -271 0
-253 -272 0
-253 -273 0
-253 -274 0
-253 -275 0
-254 -255 0
-254 -256 0
-254 -257 0
-254 -258 0
-254 -259 0
-254 -260 0
-254 -261 0
-254 -262 0
-254 -263 0
-254 -264 0
-254 -265 0
-254 -266 0
-254 -267 0
-254 -268 0
-254 -269 0
-254 -270 0
-254 -271 0
-254 -272 0
-254 -273 0
-254 -274 0
-254 -275 0
-255 -256 0
-255 -257 0
-255 -258 0
-255 -259 0
-255 -260 0
-255 -261 0
-255 -262 0
-255 -263 0
-255 -264 0
-255 -265 0
-255 -266 0
-255 -267 0
-255 -268 0
-255 -269 0
-255 -270 0
-255 -271 0
-255 -272 0
-255 -273 0
-255 -274 0
-255 -275 0
-256 -257 0
-256 -258 0
-256 -259 0
-256 -260 0
-256 -261 0
-256 -262 0
-256 -263 0
-256 -264 0
-256 -265 0
-256 -266 0
-256 -267 0
-256 -268 0
-256 -269 0
-256 -270 0
-256 -271 0
-256 -272 0
-256 -273 0
-256 -274 0
-256 -275 0
-257 -258 0
-257 -259 0
-257 -260 0
-257 -261 0
-257 -262 0
-257 -263 0
-257 -264 0
-257 -265 0
-257 -266 0
-257 -267 0
-257 -268 0
-257 -269 0
-257 -270 0
-257 -271 0
-257 -272 0
-257 -273 0
-257 -274 0
-257 -275 0
-258 -259 0
-258 -260 0
-258 -261 0
-258 -262 0
-258 -263 0
-258 -264 0
-258 -265 0
-258 -266 0
-258 -267 0
-258 -268 0
-258 -269 0
-258 -270 0
-258 -271 0
-258 -272 0
-258 -273 0
-258 -274 0
-258 -275 0
-259 -260 0
-259 -261 0
-259 -262 0
-259 -263 0
-259 -264 0
-259 -265 0
-259 -266 0
-259 -267 0
-259 -268 0
-259 -269 0
-259 -270 0
-259 -271 0
-259 -272 0
-259 -273 0
-259 -274 0
-259 -275 0
-260 -261 0
-260 -262 0
-260 -263 0
-260 -264 0
-260 -265 0
-260 -266 0
-260 -267 0
-260 -268 0
-260 -269 0
-260 -270 0
-260 -271 0
-260 -272 0
-260 -273 0
-260 -274 0
-260 -275 0
-261 -262 0
-261 -263 0
-261 -264 0
-261 -265 0
-261 -266 0
-261 -267 0
-261 -268 0
-261 -269 0
-261 -270 0
-261 -271 0
-261 -272 0
-261 -273 0
-261 -274 0
-261 -275 0
-262 -263 0
-262 -264 0
-262 -265 0
-262 -266 0
-262 -267 0
-262 -268 0
-262 -269 0
-262 -270 0
-262 -271 0
-262 -272 0
-262 -273 0
-262 -274 0
-262 -275 0
-263 -264 0
-263 -265 0
-263 -266 0
-263 -267 0
-263 -268 0
-263 -269 0
-263 -270 0
-263 -271 0
-263 -272 0
-263 -273 0
-263 -274 0
-263 -275 0
-264 -265 0
-264 -266 0
-264 -267 0
-264 -268 0
-264 -269 0
-264 -270 0
-264 -271 0
-264 -272 0
-264 -273 0
-264 -274 0
-264 -275 0
-265 -266 0
-265 -267 0
-265 -268 0
-265 -269 0
-265 -270 0
-265 -271 0
-265 -272 0
-265 -273 0
-265 -274 0
-265 -275 0
-266 -267 0
-266 -268 0
-266 -269 0
-266 -270 0
-266 -271 0
-266 -272 0
-266 -273 0
-266 -274 0
-266 -275 0
-267 -268 0
-267 -269 0
-267 -270 0
-267 -271 0
-267 -272 0
-267 -273 0
-267 -274 0
-267 -275 0
-268 -269 0
-268 -270 0
-268 -271 0
-268 -272 0
-268 -273 0
-268 -274 0
-268 -275 0
-269 -270 0
-269 -271 0
-269 -272 0
-269 -273 0
-269 -274 0
-269 -275 0
-270 -271 0
-270 -272 0
-270 -273 0
-270 -274 0
-270 -275 0
-271 -272 0
-271 -273 0
-271 -274 0
-271 -275 0
-272 -273 0
-272 -274 0
-272 -275 0
-273 -274 0
-273 -275 0
-274 -275 0
-276 -277 0
-276 -278 0
-276 -279 0
-276 -280 0
-276 -281 0
-276 -282 0
-276 -283 0
-276 -284 0
-276 -285 0
-276 -286 0
-276 -287 0
-276 -288 0
-276 -289 0
-276 -290 0
-276 -291 0
-276 -292 0
-276 -293 0
-276 -294 0
-276 -295 0
-276 -296 0
-276 -297 0
-276 -298 0
-276 -299 0
-276 -300 0
-277 -278 0
-277 -279 0
-277 -280 0
-277 -281 0
-277 -282 0
-277 -283 0
-277 -284 0
-277 -285 0
-277 -286 0
-277 -287 0
-277 -288 0
-277 -289 0
-277 -290 0
-277 -291 0
-277 -292 0
-277 -293 0
-277 -294 0
-277 -295 0
-277 -296 0
-277 -297 0
-277 -298 0
-277 -299 0
-277 -300 0
-278 -279 0
-278 -280 0
-278 -281 0
-278 -282 0
-278 -283 0
-278 -284 0
-278 -285 0
-278 -286 0
-278 -287 0
-278 -288 0
-278 -289 0
-278 -290 0
-278 -291 0
-278 -292 0
-278 -293 0
-278 -294 0
-278 -295 0
-278 -296 0
-278 -297 0
-278 -298 0
-278 -299 0
-278 -300 0
-279 -280 0
-279 -281 0
-279 -282 0
-279 -283 0
-279 -284 0
-279 -285 0
-279 -286 0
-279 -287 0
-279 -288 0
-279 -289 0
-279 -290 0
-279 -291 0
-279 -292 0
-279 -293 0
-279 -294 0
-279 -295 0
-279 -296 0
-279 -297 0
-279 -298 0
-279 -299 0
-279 -300 0
-280 -281 0
-280 -282 0
-280 -283 0
-280 -284 0
-280 -285 0
-280 -286 0
-280 -287 0
-280 -288 0
-280 -289 0
-280 -290 0
-280 -291 0
-280 -292 0
-280 -293 0
-280 -294 0
-280 -295 0
-280 -296 0
-280 -297 0
-280 -298 0
-280 -299 0
-280 -300 0
-281 -282 0
-281 -283 0
-281 -284 0
-281 -285 0
-281 -286 0
-281 -287 0
-281 -288 0
-281 -289 0
-281 -290 0
-281 -291 0
-281 -292 0
-281 -293 0
-281 -294 0
-281 -295 0
-281 -296 0
-281 -297 0
-281 -298 0
-281 -299 0
-281 -300 0
-282 -283 0
-282 -284 0
-282 -285 0
-282 -286 0
-282 -287 0
-282 -288 0
-282 -289 0
-282 -290 0
-282 -291 0
-282 -292 0
-282 -293 0
-282 -294 0
-282 -295 0
-282 -296 0
-282 -297 0
-282 -298 0
-282 -299 0
-282 -300 0
-283 -284 0
-283 -285 0
-283 -286 0
-283 -287 0
-283 -288 0
-283 -289 0
-283 -290 0
-283 -291 0
-283 -292 0
-283 -293 0
-283 -294 0
-283 -295 0
-283 -296 0
-283 -297 0
-283 -298 0
-283 -299 0
-283 -300 0
-284 -285 0
-284 -286 0
-284 -287 0
-284 -288 0
-284 -289 0
-284 -290 0
-284 -291 0
-284 -292 0
-284 -293 0
-284 -294 0
-284 -295 0
-284 -296 0
-284 -297 0
-284 -298 0
-284 -299 0
-284 -300 0
-285 -286 0
-285 -287 0
-285 -288 0
-285 -289 0
-285 -290 0
-285 -291 0
-285 -292 0
-285 -293 0
-285 -294 0
-285 -295 0
-285 -296 0
-285 -297 0
-285 -298 0
-285 -299 0
-285 -300 0
-286 -287 0
-286 -288 0
-286 -289 0
-286 -290 0
-286 -291 0
-286 -292 0
-286 -293 0
-286 -294 0
-286 -295 0
-286 -296 0
-286 -297 0
-286 -298 0
-286 -299 0
-286 -300 0
-287 -288 0
-287 -289 0
-287 -290 0
-287 -291 0
-287 -292 0
-287 -293 0
-287 -294 0
-287 -295 0
-287 -296 0
-287 -297 0
-287 -298 0
-287 -299 0
-287 -300 0
-288 -289 0
-288 -290 0
-288 -291 0
-288 -292 0
-288 -293 0
-288 -294 0
-288 -295 0
-288 -296 0
-288 -297 0
-288 -298 0
-288 -299 0
-288 -300 0
-289 -290 0
-289 -291 0
-289 -292 0
-289 -293 0
-289 -294 0
-289 -295 0
-289 -296 0
-289 -297 0
-289 -298 0
-289 -299 0
-289 -300 0
-290 -291 0
-290 -292 0
-290 -293 0
-290 -294 0
-290 -295 0
-290 -296 0
-290 -297 0
-290 -298 0
-290 -299 0
-290 -300 0
-291 -292 0
-291 -293 0
-291 -294 0
-291 -295 0
-291 -296 0
-291 -297 0
-291 -298 0
-291 -299 0
-291 -300 0
-292 -293 0
-292 -294 0
-292 -295 0
-292 -296 0
-292 -297 0
-292 -298 0
-292 -299 0
-292 -300 0
-293 -294 0
-293 -295 0
-293 -296 0
-293 -297 0
-293 -298 0
-293 -299 0
-293 -300 0
-294 -295 0
-294 -296 0
-294 -297 0
-294 -298 0
-294 -299 0
-294 -300 0
-295 -296 0
-295 -297 0
-295 -298 0
-295 -299 0
-295 -300 0
-296 -297 0
-296 -298 0
-296 -299 0
-296 -300 0
-297 -298 0
-297 -299 0
-297 -300 0
-298 -299 0
-298 -300 0
-299 -300 0
-1 -26 0
-1 -51 0
-1 -76 0
-1 -101 0
-1 -126 0
-1 -151 0
-1 -176 0
-1 -201 0
-1 -226 0
-1 -251 0
-1 -276 0
-26 -51 0
-26 -76 0
-26 -101 0
-26 -126 0
-26 -151 0
-26 -176 0
-26 -201 0
-26 -226 0
-26 -251 0
-26 -276 0
-51 -76 0
-51 -101 0
-51 -126 0
-51 -151 0
-51 -176 0
-51 -201 0
-51 -226 0
-51 -251 0
-51 -276 0
-76 -101 0
-76 -126 0
-76 -151 0
-76 -176 0
-76 -201 0
-76 -226 0
-76 -251 0
-76 -276 0
-101 -126 0
-101 -151 0
-101 -176 0
-101 -201 0
-101 -226 0
-101 -251 0
-101 -276 0
-126 -151 0
-126 -176 0
-126 -201 0
-126 -226 0
-126 -251 0
-126 -276 0
-151 -176 0
-151 -201 0
-151 -226 0
-151 -251 0
-151 -276 0
-176 -201 0
-176 -226 0
-176 -251 0
-176 -276 0
-201 -226 0
-201 -251 0
-201 -276 0
-226 -251 0
-226 -276 0
-251 -276 0
-2 -27 0
-2 -52 0
-2 -77 0
-2 -102 0
-2 -127 0
-2 -152 0
-2 -177 0
-2 -202 0
-2 -227 0
-2 -252 0
-2 -277 0
-27 -52 0
-27 -77 0
-27 -102 0
-27 -127 0
-27 -152 0
-27 -177 0
-27 -202 0
-27 -227 0
-27 -252 0
-27 -277 0
-52 -77 0
-52 -102 0
-52 -127 0
-52 -152 0
-52 -177 0
-52 -202 0
-52 -227 0
-52 -252 0
-52 -277 0
-77 -102 0
-77 -127 0
-77 -152 0
-77 -177 0
-77 -202 0
-77 -227 0
-77 -252 0
-77 -277 0
-102 -127 0
-102 -152 0
-102 -177 0
-102 -202 0
-102 -227 0
-102 -252 0
-102 -277 0
-127 -152 0
-127 -177 0
-127 -202 0
-127 -227 0
-127 -252 0
-127 -277 0
-152 -177 0
-152 -202 0
-152 -227 0
-152 -252 0
-152 -277 0
-177 -202 0
-177 -227 0
-177 -252 0
-177 -277 0
-202 -227 0
-202 -252 0
-202 -277 0
-227 -252 0
-227 -277 0
-252 -277 0
-3 -28 0
-3 -53 0
-3 -78 0
-3 -103 0
-3 -128 0
-3 -153 0
-3 -178 0
-3 -203 0
-3 -228 0
-3 -253 0
-3 -278 0
-28 -53 0
-28 -78 0
-28 -103 0
-28 -128 0
-28 -153 0
-28 -178 0
-28 -203 0
-28 -228 0
-28 -253 0
-28 -278 0
-53 -78 0
-53 -103 0
-53 -128 0
-53 -153 0
-53 -178 0
-53 -203 0
-53 -228 0
-53 -253 0
-53 -278 0
-78 -103 0
-78 -128 0
-78 -153 0
-78 -178 0
-78 -203 0
-78 -228 0
-78 -253 0
-78 -278 0
-103 -128 0
-103 -153 0
-103 -178 0
-103 -203 0
-103 -228 0
-103 -253 0
-103 -278 0
-128 -153 0
-128 -178 0
-128 -203 0
-128 -228 0
-128 -253 0
-128 -278 0
-153 -178 0
-153 -203 0
-153 -228 0
-153 -253 0
-153 -278 0
-178 -203 0
-178 -228 0
-178 -253 0
-178 -278 0
-203 -228 0
-203 -253 0
-203 -278 0
-228 -253 0
-228 -278 0
-253 -278 0
-4 -29 0
-4 -54 0
-4 -79 0
-4 -104 0
-4 -129 0
-4 -154 0
-4 -179 0
-4 -204 0
-4 -229 0
-4 -254 0
-4 -279 0
-29 -54 0
-29 -79 0
-29 -104 0
-29 -129 0
-29 -154 0
-29 -179 0
-29 -204 0
-29 -229 0
-29 -254 0
-29 -279 0
-54 -79 0
-54 -104 0
-54 -129 0
-54 -154 0
-54 -179 0
-54 -204 0
-54 -229 0
-54 -254 0
-54 -279 0
-79 -104 0
-79 -129 0
-79 -154 0
-79 -179 0
-79 -204 0
-79 -229 0
-79 -254 0
-79 -279 0
-104 -129 0
-104 -154 0
-104 -179 0
-104 -204 0
-104 -229 0
-104 -254 0
-104 -279 0
-129 -154 0
-129 -179 0
-129 -204 0
-129 -229 0
-129 -254 0
-129 -279 0
-154 -179 0
-154 -204 0
-154 -229 0
-154 -254 0
-154 -279 0
-179 -204 0
-179 -229 0
-179 -254 0
-179 -279 0
-204 -229 0
-204 -254 0
-204 -279 0
-229 -254 0
-229 -279 0
-254 -279 0
-5 -30 0
-5 -55 0
-5 -80 0
-5 -105 0
-5 -130 0
-5 -155 0
-5 -180 0
-5 -205 0
-5 -230 0
-5 -255 0
-5 -280 0
-30 -55 0
-30 -80 0
-30 -105 0
-30 -130 0
-30 -155 0
-30 -180 0
-30 -205 0
-30 -230 0
-30 -255 0
-30 -280 0
-55 -80 0
-55 -105 0
-55 -130 0
-55 -155 0
-55 -180 0
-55 -205 0
-55 -230 0
-55 -255 0
-55 -280 0
-80 -105 0
-80 -130 0
-80 -155 0
-80 -180 0
-80 -205 0
-80 -230 0
-80 -255 0
-80 -280 0
-105 -130 0
-105 -155 0
-105 -180 0
-105 -205 0
-105 -230 0
-105 -255 0
-105 -280 0
-130 -155 0
-130 -180 0
-130 -205 0
-130 -230 0
-130 -255 0
-130 -280 0
-155 -180 0
-155 -205 0
-155 -230 0
-155 -255 0
-155 -280 0
-180 -205 0
-180 -230 0
-180 -255 0
-180 -280 0
-205 -230 0
-205 -255 0
-205 -280 0
-230 -255 0
-230 -280 0
-255 -280 0
-6 -31 0
-6 -56 0
-6 -81 0
-6 -106 0
-6 -131 0
-6 -156 0
-6 -181 0
-6 -206 0
-6 -231 0
-6 -256 0
-6 -281 0
-31 -56 0
-31 -81 0
-31 -106 0
-31 -131 0
-31 -156 0
-31 -181 0
-31 -206 0
-31 -231 0
-31 -256 0
-31 -281 0
-56 -81 0
-56 -106 0
-56 -131 0
-56 -156 0
-56 -181 0
-56 -206 0
-56 -231 0
-56 -256 0
-56 -281 0
-81 -106 0
-81 -131 0
-81 -156 0
-81 -181 0
-81 -206 0
-81 -231 0
-81 -256 0
-81 -281 0
-106 -131 0
-106 -156 0
-106 -181 0
-106 -206 0
-106 -231 0
-106 -256 0
-106 -281 0
-131 -156 0
-131 -181 0
-131 -206 0
-131 -231 0
-131 -256 0
-131 -281 0
-156 -181 0
-156 -206 0
-156 -231 0
-156 -256 0
-156 -281 0
-181 -206 0
-181 -231 0
-181 -256 0
-181 -281 0
-206 -231 0
-206 -256 0
-206 -281 0
-231 -256 0
-231 -281 0
-256 -281 0
-7 -32 0
-7 -57 0
-7 -82 0
-7 -107 0
-7 -132 0
-7 -157 0
-7 -182 0
-7 -207 0
-7 -232 0
-7 -257 0
-7 -282 0
-32 -57 0
-32 -82 0
-32 -107 0
-32 -132 0
-32 -157 0
-32 -182 0
-32 -207 0
-32 -232 0
-32 -257 0
-32 -282 0
-57 -82 0
-57 -107 0
-57 -132 0
-57 -157 0
-57 -182 0
-57 -207 0
-57 -232 0
-57 -257 0
-57 -282 0
-82 -107 0
-82 -132 0
-82 -157 0
-82 -182 0
-82 -207 0
-82 -232 0
-82 -257 0
-82 -282 0
-107 -132 0
-107 -157 0
-107 -182 0
-107 -207 0
-107 -232 0
-107 -257 0
-107 -282 0
-132 -157 0
-132 -182 0
-132 -207 0
-132 -232 0
-132 -257 0
-132 -282 0
-157 -182 0
-157 -207 0
-157 -232 0
-157 -257 0
-157 -282 0
-182 -207 0
-182 -232 0
-182 -257 0
-182 -282 0
-207 -232 0
-207 -257 0
-207 -282 0
-232 -257 0
-232 -282 0
-257 -282 0
-8 -33 0
-8 -58 0
-8 -83 0
-8 -108 0
-8 -133 0
-8 -158 0
-8 -183 0
-8 -208 0
-8 -233 0
-8 -258 0
-8 -283 0
-33 -58 0
-33 -83 0
-33 -108 0
-33 -133 0
-33 -158 0
-33 -183 0
-33 -208 0
-33 -233 0
-33 -258 0
-33 -283 0
-58 -83 0
-58 -108 0
-58 -133 0
-58 -158 0
-58 -183 0
-58 -208 0
-58 -233 0
-58 -258 0
-58 -283 0
-83 -108 0
-83 -133 0
-83 -158 0
-83 -183 0
-83 -208 0
-83 -233 0
-83 -258 0
-83 -283 0
-108 -133 0
-108 -158 0
-108 -183 0
-108 -208 0
-108 -233 0
-108 -258 0
-108 -283 0
-133 -158 0
-133 -183 0
-133 -208 0
-133 -233 0
-133 -258 0
-133 -283 0
-158 -183 0
-158 -208 0
-158 -233 0
-158 -258 0
-158 -283 0
-183 -208 0
-183 -233 0
-183 -258 0
-183 -283 0
-208 -233 0
-208 -258 0
-208 -283 0
-233 -258 0
-233 -283 0
-258 -283 0
-9 -34 0
-9 -59 0
-9 -84 0
-9 -109 0
-9 -134 0
-9 -159 0
-9 -184 0
-9 -209 0
-9 -234 0
-9 -259 0
-9 -284 0
-34 -59 0
-34 -84 0
-34 -109 0
-34 -134 0
-34 -159 0
-34 -184 0
-34 -209 0
-34 -234 0
-34 -259 0
-34 -284 0
-59 -84 0
-59 -109 0
-59 -134 0
-59 -159 0
-59 -184 0
-59 -209 0
-59 -234 0
-59 -259 0
-59 -284 0
-84 -109 0
-84 -134 0
-84 -159 0
-84 -184 0
-84 -209 0
-84 -234 0
-84 -259 0
-84 -284 0
-109 -134 0
-109 -159 0
-109 -184 0
-109 -209 0
-109 -234 0
-109 -259 0
-109 -284 0
-134 -159 0
-134 -184 0
-134 -209 0
-134 -234 0
-134 -259 0
-134 -284 0
-159 -184 0
-159 -209 0
-159 -234 0
-159 -259 0
-159 -284 0
-184 -209 0
-184 -234 0
-184 -259 0
-184 -284 0
-209 -234 0
-209 -259 0
-209 -284 0
-234 -259 0
-234 -284 0
-259 -284 0
-10 -35 0
-10 -60 0
-10 -85 0
-10 -110 0
-10 -135 0
-10 -160 0
-10 -185 0
-10 -210 0
-10 -235 0
-10 -260 0
-10 -285 0
-35 -60 0
-35 -85 0
-35 -110 0
-35 -135 0
-35 -160 0
-35 -185 0
-35 -210 0
-35 -235 0
-35 -260 0
-35 -285 0
-60 -85 0
-60 -110 0
-60 -135 0
-60 -160 0
-60 -185 0
-60 -210 0
-60 -235 0
-60 -260 0
-60 -285 0
-85 -110 0
-85 -135 0
-85 -160 0
-85 -185 0
-85 -210 0
-85 -235 0
-85 -260 0
-85 -285 0
-110 -135 0
-110 -160 0
-110 -185 0
-110 -210 0
-110 -235 0
-110 -260 0
-110 -285 0
-135 -160 0
-135 -185 0
-135 -210 0
-135 -235 0
-135 -260 0
-135 -285 0
-160 -185 0
-160 -210 0
-160 -235 0
-160 -260 0
-160 -285 0
-185 -210 0
-185 -235 0
-185 -260 0
-185 -285 0
-210 -235 0
-210 -260 0
-210 -285 0
-235 -260 0
-235 -285 0
-260 -285 0
-11 -36 0
-11 -61 0
-11 -86 0
-11 -111 0
-11 -136 0
-11 -161 0
-11 -186 0
-11 -211 0
-11 -236 0
-11 -261 0
-11 -286 0
-36 -61 0
-36 -86 0
-36 -111 0
-36 -136 0
-36 -161 0
-36 -186 0
-36 -211 0
-36 -236 0
-36 -261 0
-36 -286 0
-61 -86 0
-61 -111 0
-61 -136 0
-61 -161 0
-61 -186 0
-61 -211 0
-61 -236 0
-61 -261 0
-61 -286 0
-86 -111 0
-86 -136 0
-86 -161 0
-86 -186 0
-86 -211 0
-86 -236 0
-86 -261 0
-86 -286 0
-111 -136 0
-111 -161 0
-111 -186 0
-111 -211 0
-111 -236 0
-111 -261 0
-111 -286 0
-136 -161 0
-136 -186 0
-136 -211 0
-136 -236 0
-136 -261 0
-136 -286 0
-161 -186 0
-161 -211 0
-161 -236 0
-161 -261 0
-161 -286 0
-186 -211 0
-186 -236 0
-186 -261 0
-186 -286 0
-211 -236 0
-211 -261 0
-211 -286 0
-236 -261 0
-236 -286 0
-261 -286 0
-12 -37 0
-12 -62 0
-12 -87 0
-12 -112 0
-12 -137 0
-12 -162 0
-12 -187 0
-12 -212 0
-12 -237 0
-12 -262 0
-12 -287 0
-37 -62 0
-37 -87 0
-37 -112 0
-37 -137 0
-37 -162 0
-37 -187 0
-37 -212 0
-37 -237 0
-37 -262 0
-37 -287 0
-62 -87 0
-62 -112 0
-62 -137 0
-62 -162 0
-62 -187 0
-62 -212 0
-62 -237 0
-62 -262 0
-62 -287 0
-87 -112 0
-87 -137 0
-87 -162 0
-87 -187 0
-87 -212 0
-87 -237 0
-87 -262 0
-87 -287 0
-112 -137 0
-112 -162 0
-112 -187 0
-112 -212 0
-112 -237 0
-112 -262 0
-112 -287 0
-137 -162 0
-137 -187 0
-137 -212 0
-137 -237 0
-137 -262 0
-137 -287 0
-162 -187 0
-162 -212 0
-162 -237 0
-162 -262 0
-162 -287 0
-187 -212 0
-187 -237 0
-187 -262 0
-187 -287 0
-212 -237 0
-212 -262 0
-212 -287 0
-237 -262 0
-237 -287 0
-262 -287 0
-13 -38 0
-13 -63 0
-13 -88 0
-13 -113 0
-13 -138 0
-13 -163 0
-13 -188 0
-13 -213 0
-13 -238 0
-13 -263 0
-13 -288 0
-38 -63 0
-38 -88 0
-38 -113 0
-38 -138 0
-38 -163 0
-38 -188 0
-38 -213 0
-38 -238 0
-38 -263 0
-38 -288 0
-63 -88 0
-63 -113 0
-63 -138 0
-63 -163 0
-63 -188 0
-63 -213 0
-63 -238 0
-63 -263 0
-63 -288 0
-88 -113 0
-88 -138 0
-88 -163 0
-88 -188 0
-88 -213 0
-88 -238 0
-88 -263 0
-88 -288 0
-113 -138 0
-113 -163 0
-113 -188 0
-113 -213 0
-113 -238 0
-113 -263 0
-113 -288 0
-138 -163 0
-138 -188 0
-138 -213 0
-138 -238 0
-138 -263 0
-138 -288 0
-163 -188 0
-163 -213 0
-163 -238 0
-163 -263 0
-163 -288 0
-188 -213 0
-188 -238 0
-188 -263 0
-188 -288 0
-213 -238 0
-213 -263 0
-213 -288 0
-238 -263 0
-238 -288 0
-263 -288 0
-14 -39 0
-14 -64 0
-14 -89 0
-14 -114 0
-14 -139 0
-14 -164 0
-14 -189 0
-14 -214 0
-14 -239 0
-14 -264 0
-14 -289 0
-39 -64 0
-39 -89 0
-39 -114 0
-39 -139 0
-39 -164 0
-39 -189 0
-39 -214 0
-39 -239 0
-39 -264 0
-39 -289 0
-64 -89 0
-64 -114 0
-64 -139 0
-64 -164 0
-64 -189 0
-64 -214 0
-64 -239 0
-64 -264 0
-64 -289 0
-89 -114 0
-89 -139 0
-89 -164 0
-89 -189 0
-89 -214 0
-89 -239 0
-89 -264 0
-89 -289 0
-114 -139 0
-114 -164 0
-114 -189 0
-114 -214 0
-114 -239 0
-114 -264 0
-114 -289 0
-139 -164 0
-139 -189 0
-139 -214 0
-139 -239 0
-139 -264 0
-139 -289 0
-164 -189 0
-164 -214 0
-164 -239 0
-164 -264 0
-164 -289 0
-189 -214 0
-189 -239 0
-189 -264 0
-189 -289 0
-214 -239 0
-214 -264 0
-214 -289 0
-239 -264 0
-239 -289 0
-264 -289 0
-15 -40 0
-15 -65 0
-15 -90 0
-15 -115 0
-15 -140 0
-15 -165 0
-15 -190 0
-15 -215 0
-15 -240 0
-15 -265 0
-15 -290 0
-40 -65 0
-40 -90 0
-40 -115 0
-40 -140 0
-40 -165 0
-40 -190 0
-40 -215 0
-40 -240 0
-40 -265 0
-40 -290 0
-65 -90 0
-65 -115 0
-65 -140 0
-65 -165 0
-65 -190 0
-65 -215 0
-65 -240 0
-65 -265 0
-65 -290 0
-90 -115 0
-90 -140 0
-90 -165 0
-90 -190 0
-90 -215 0
-90 -240 0
-90 -265 0
-90 -290 0
-115 -140 0
-115 -165 0
-115 -190 0
-115 -215 0
-115 -240 0
-115 -265 0
-115 -290 0
-140 -165 0
-140 -190 0
-140 -215 0
-140 -240 0
-140 -265 0
-140 -290 0
-165 -190 0
-165 -215 0
-165 -240 0
-165 -265 0
-165 -290 0
-190 -215 0
-190 -240 0
-190 -265 0
-190 -290 0
-215 -240 0
-215 -265 0
-215 -290 0
-240 -265 0
-240 -290 0
-265 -290 0
-16 -41 0
-16 -66 0
-16 -91 0
-16 -116 0
-16 -141 0
-16 -166 0
-16 -191 0
-16 -216 0
-16 -241 0
-16 -266 0
-16 -291 0
-41 -66 0
-41 -91 0
-41 -116 0
-41 -141 0
-41 -166 0
-41 -191 0
-41 -216 0
-41 -241 0
-41 -266 0
-41 -291 0
-66 -91 0
-66 -116 0
-66 -141 0
-66 -166 0
-66 -191 0
-66 -216 0
-66 -241 0
-66 -266 0
-66 -291 0
-91 -116 0
-91 -141 0
-91 -166 0
-91 -191 0
-91 -216 0
-91 -241 0
-91 -266 0
-91 -291 0
-116 -141 0
-116 -166 0
-116 -191 0
-116 -216 0
-116 -241 0
-116 -266 0
-116 -291 0
-141 -166 0
-141 -191 0
-141 -216 0
-141 -241 0
-141 -266 0
-141 -291 0
-166 -191 0
-166 -216 0
-166 -241 0
-166 -266 0
-166 -291 0
-191 -216 0
-191 -241 0
-191 -266 0
-191 -291 0
-216 -241 0
-216 -266 0
-216 -291 0
-241 -266 0
-241 -291 0
-266 -291 0
-17 -42 0
-17 -67 0
-17 -92 0
-17 -117 0
-17 -142 0
-17 -167 0
-17 -192 0
-17 -217 0
-17 -242 0
-17 -267 0
-17 -292 0
-42 -67 0
-42 -92 0
-42 -117 0
-42 -142 0
-42 -167 0
-42 -192 0
-42 -217 0
-42 -242 0
-42 -267 0
-42 -292 0
-67 -92 0
-67 -117 0
-67 -142 0
-67 -167 0
-67 -192 0
-67 -217 0
-67 -242 0
-67 -267 0
-67 -292 0
-92 -117 0
-92 -142 0
-92 -167 0
-92 -192 0
-92 -217 0
-92 -242 0
-92 -267 0
-92 -292 0
-117 -142 0
-117 -167 0
-117 -192 0
-117 -217 0
-117 -242 0
-117 -267 0
-117 -292 0
-142 -167 0
-142 -192 0
-142 -217 0
-142 -242 0
-142 -267 0
-142 -292 0
-167 -192 0
-167 -217 0
-167 -242 0
-167 -267 0
-167 -292 0
-192 -217 0
-192 -242 0
-192 -267 0
-192 -292 0
-217 -242 0
-217 -267 0
-217 -292 0
-242 -267 0
-242 -292 0
-267 -292 0
-18 -43 0
-18 -68 0
-18 -93 0
-18 -118 0
-18 -143 0
-18 -168 0
-18 -193 0
-18 -218 0
-18 -243 0
-18 -268 0
-18 -293 0
-43 -68 0
-43 -93 0
-43 -118 0
-43 -143 0
-43 -168 0
-43 -193 0
-43 -218 0
-43 -243 0
-43 -268 0
-43 -293 0
-68 -93 0
-68 -118 0
-68 -143 0
-68 -168 0
-68 -193 0
-68 -218 0
-68 -243 0
-68 -268 0
-68 -293 0
-93 -118 0
-93 -143 0
-93 -168 0
-93 -193 0
-93 -218 0
-93 -243 0
-93 -268 0
-93 -293 0
-118 -143 0
-118 -168 0
-118 -193 0
-118 -218 0
-118 -243 0
-118 -268 0
-118 -293 0
-143 -168 0
-143 -193 0
-143 -218 0
-143 -243 0
-143 -268 0
-143 -293 0
-168 -193 0
-168 -218 0
-168 -243 0
-168 -268 0
-168 -293 0
-193 -218 0
-193 -243 0
-193 -268 0
-193 -293 0
-218 -243 0
-218 -268 0
-218 -293 0
-243 -268 0
-243 -293 0
-268 -293 0
-19 -44 0
-19 -69 0
-19 -94 0
-19 -119 0
-19 -144 0
-19 -169 0
-19 -194 0
-19 -219 0
-19 -244 0
-19 -269 0
-19 -294 0
-44 -69 0
-44 -94 0
-44 -119 0
-44 -144 0
-44 -169 0
-44 -194 0
-44 -219 0
-44 -244 0
-44 -269 0
-44 -294 0
-69 -94 0
-69 -119 0
-69 -144 0
-69 -169 0
-69 -194 0
-69 -219 0
-69 -244 0
-69 -269 0
-69 -294 0
-94 -119 0
-94 -144 0
-94 -169 0
-94 -194 0
-94 -219 0
-94 -244 0
-94 -269 0
-94 -294 0
-119 -144 0
-119 -169 0
-119 -194 0
-119 -219 0
-119 -244 0
-119 -269 0
-119 -294 0
-144 -169 0
-144 -194 0
-144 -219 0
-144 -244 0
-144 -269 0
-144 -294 0
-169 -194 0
-169 -219 0
-169 -244 0
-169 -269 0
-169 -294 0
-194 -219 0
-194 -244 0
-194 -269 0
-194 -294 0
-219 -244 0
-219 -269 0
-219 -294 0
-244 -269 0
-244 -294 0
-269 -294 0
-20 -45 0
-20 -70 0
-20 -95 0
-20 -120 0
-20 -145 0
-20 -170 0
-20 -195 0
-20 -220 0
-20 -245 0
-20 -270 0
-20 -295 0
-45 -70 0
-45 -95 0
-45 -120 0
-45 -145 0
-45 -170 0
-45 -195 0
-45 -220 0
-45 -245 0
-45 -270 0
-45 -295 0
-70 -95 0
-70 -120 0
-70 -145 0
-70 -170 0
-70 -195 0
-70 -220 0
-70 -245 0
-70 -270 0
-70 -295 0
-95 -120 0
-95 -145 0
-95 -170 0
-95 -195 0
-95 -220 0
-95 -245 0
-95 -270 0
-95 -295 0
-120 -145 0
-120 -170 0
-120 -195 0
-120 -220 0
-120 -245 0
-120 -270 0
-120 -295 0
-145 -170 0
-145 -195 0
-145 -220 0
-145 -245 0
-145 -270 0
-145 -295 0
-170 -195 0
-170 -220 0
-170 -245 0
-170 -270 0
-170 -295 0
-195 -220 0
-195 -245 0
-195 -270 0
-195 -295 0
-220 -245 0
-220 -270 0
-220 -295 0
-245 -270 0
-245 -295 0
-270 -295 0
-21 -46 0
-21 -71 0
-21 -96 0
-21 -121 0
-21 -146 0
-21 -171 0
-21 -196 0
-21 -221 0
-21 -246 0
-21 -271 0
-21 -296 0
-46 -71 0
-46 -96 0
-46 -121 0
-46 -146 0
-46 -171 0
-46 -196 0
-46 -221 0
-46 -246 0
-46 -271 0
-46 -296 0
-71 -96 0
-71 -121 0
-71 -146 0
-71 -171 0
-71 -196 0
-71 -221 0
-71 -246 0
-71 -271 0
-71 -296 0
-96 -121 0
-96 -146 0
-96 -171 0
-96 -196 0
-96 -221 0
-96 -246 0
-96 -271 0
-96 -296 0
-121 -146 0
-121 -171 0
-121 -196 0
-121 -221 0
-121 -246 0
-121 -271 0
-121 -296 0
-146 -171 0
-146 -196 0
-146 -221 0
-146 -246 0
-146 -271 0
-146 -296 0
-171 -196 0
-171 -221 0
-171 -246 0
-171 -271 0
-171 -296 0
-196 -221 0
-196 -246 0
-196 -271 0
-196 -296 0
-221 -246 0
-221 -271 0
-221 -296 0
-246 -271 0
-246 -296 0
-271 -296 0
-22 -47 0
-22 -72 0
-22 -97 0
-22 -122 0
-22 -147 0
-22 -172 0
-22 -197 0
-22 -222 0
-22 -247 0
-22 -272 0
-22 -297 0
-47 -72 0
-47 -97 0
-47 -122 0
-47 -147 0
-47 -172 0
-47 -197 0
-47 -222 0
-47 -247 0
-47 -272 0
-47 -297 0
-72 -97 0
-72 -122 0
-72 -147 0
-72 -172 0
-72 -197 0
-72 -222 0
-72 -247 0
-72 -272 0
-72 -297 0
-97 -122 0
-97 -147 0
-97 -172 0
-97 -197 0
-97 -222 0
-97 -247 0
-97 -272 0
-97 -297 0
-122 -147 0
-122 -172 0
-122 -197 0
-122 -222 0
-122 -247 0
-122 -272 0
-122 -297 0
-147 -172 0
-147 -197 0
-147 -222 0
-147 -247 0
-147 -272 0
-147 -297 0
-172 -197 0
-172 -222 0
-172 -247 0
-172 -272 0
-172 -297 0
-197 -222 0
-197 -247 0
-197 -272 0
-197 -297 0
-222 -247 0
-222 -272 0
-222 -297 0
-247 -272 0
-247 -297 0
-272 -297 0
-23 -48 0
-23 -73 0
-23 -98 0
-23 -123 0
-23 -148 0
-23 -173 0
-23 -198 0
-23 -223 0
-23 -248 0
-23 -273 0
-23 -298 0
-48 -73 0
-48 -98 0
-48 -123 0
-48 -148 0
-48 -173 0
-48 -198 0
-48 -223 0
-48 -248 0
-48 -273 0
-48 -298 0
-73 -98 0
-73 -123 0
-73 -148 0
-73 -173 0
-73 -198 0
-73 -223 0
-73 -248 0
-73 -273 0
-73 -298 0
-98 -123 0
-98 -148 0
-98 -173 0
-98 -198 0
-98 -223 0
-98 -248 0
-98 -273 0
-98 -298 0
-123 -148 0
-123 -173 0
-123 -198 0
-123 -223 0
-123 -248 0
-123 -273 0
-123 -298 0
-148 -173 0
-148 -198 0
-148 -223 0
-148 -248 0
-148 -273 0
-148 -298 0
-173 -198 0
-173 -223 0
-173 -248 0
-173 -273 0
-173 -298 0
-198 -223 0
-198 -248 0
-198 -273 0
-198 -298 0
-223 -248 0
-223 -273 0
-223 -298 0
-248 -273 0
-248 -298 0
-273 -298 0
-24 -49 0
-24 -74 0
-24 -99 0
-24 -124 0
-24 -149 0
-24 -174 0
-24 -199 0
-24 -224 0
-24 -249 0
-24 -274 0
-24 -299 0
-49 -74 0
-49 -99 0
-49 -124 0
-49 -149 0
-49 -174 0
-49 -199 0
-49 -224 0
-49 -249 0
-49 -274 0
-49 -299 0
-74 -99 0
-74 -124 0
-74 -149 0
-74 -174 0
-74 -199 0
-74 -224 0
-74 -249 0
-74 -274 0
-74 -299 0
-99 -124 0
-99 -149 0
-99 -174 0
-99 -199 0
-99 -224 0
-99 -249 0
-99 -274 0
-99 -299 0
-124 -149 0
-124 -174 0
-124 -199 0
-124 -224 0
-124 -249 0
-124 -274 0
-124 -299 0
-149 -174 0
-149 -199 0
-149 -224 0
-149 -249 0
-149 -274 0
-149 -299 0
-174 -199 0
-174 -224 0
-174 -249 0
-174 -274 0
-174 -299 0
-199 -224 0
-199 -249 0
-199 -274 0
-199 -299 0
-224 -249 0
-224 -274 0
-224 -299 0
-249 -274 0
-249 -299 0
-274 -299 0
-25 -50 0
-25 -75 0
-25 -100 0
-25 -125 0
-25 -150 0
-25 -175 0
-25 -200 0
-25 -225 0
-25 -250 0
-25 -275 0
-25 -300 0
-50 -75 0
-50 -100 0
-50 -125 0
-50 -150 0
-50 -175 0
-50 -200 0
-50 -225 0
-50 -250 0
-50 -275 0
-50 -300 0
-75 -100 0
-75 -125 0
-75 -150 0
-75 -175 0
-75 -200 0
-75 -225 0
-75 -250 0
-75 -275 0
-75 -300 0
-100 -125 0
-100 -150 0
-100 -175 0
-100 -200 0
-100 -225 0
-100 -250 0
-100 -275 0
-100 -300 0
-125 -150 0
-125 -175 0
-125 -200 0
-125 -225 0
-125 -250 0
-125 -275 0
-125 -300 0
-150 -175 0
-150 -200 0
-150 -225 0
-150 -250 0
-150 -275 0
-150 -300 0
-175 -200 0
-175 -225 0
-175 -250 0
-175 -275 0
-175 -300 0
-200 -225 0
-200 -250 0
-200 -275 0
-200 -300 0
-225 -250 0
-225 -275 0
-225 -300 0
-250 -275 0
-250 -300 0
-275 -300 0
-21 0
-22 0
-23 0
-24 0
-25 0
-46 0
-47 0
-48 0
-49 0
-50 0
-75 0
-98 0
-99 0
-100 0
-121 0
-122 0
-123 0
-124 0
-125 0
-146 0
-147 0
-148 0
-149 0
-150 0
-173 0
-174 0
-175 0
-200 0
-225 0
-248 0
-249 0
-250 0
-275 0
-300 0
-1 -26 0
-1 -51 0
-1 -76 0
-1 -101 0
-1 -126 0
-1 -151 0
-1 -176 0
-1 -201 0
-1 -226 0
-1 -251 0
-1 -276 0
-26 -51 0
-26 -76 0
-26 -101 0
-26 -126 0
-26 -151 0
-26 -176 0
-26 -201 0
-26 -226 0
-26 -251 0
-26 -276 0
-51 -76 0
-51 -101 0
-51 -126 0
-51 -151 0
-51 -176 0
-51 -201 0
-51 -226 0
-51 -251 0
-51 -276 0
-76 -101 0
-76 -126 0
-76 -151 0
-76 -176 0
-76 -201 0
-76 -226 0
-76 -251 0
-76 -276 0
-101 -126 0
-101 -151 0
-101 -176 0
-101 -201 0
-101 -226 0
-101 -251 0
-101 -276 0
-126 -151 0
-126 -176 0
-126 -201 0
-126 -226 0
-126 -251 0
-126 -276 0
-151 -176 0
-151 -201 0
-151 -226 0
-151 -251 0
-151 -276 0
-176 -201 0
-176 -226 0
-176 -251 0
-176 -276 0
-201 -226 0
-201 -251 0
-201 -276 0
-226 -251 0
-226 -276 0
-251 -276 0
-2 -1 0
-2 -27 0
-2 -26 0
-2 -52 0
-2 -51 0
-2 -77 0
-2 -76 0
-2 -102 0
-2 -101 0
-2 -127 0
-2 -126 0
-2 -152 0
-2 -151 0
-2 -177 0
-2 -176 0
-2 -202 0
-2 -201 0
-2 -227 0
-2 -226 0
-2 -252 0
-2 -251 0
-2 -277 0
-2 -276 0
-1 -27 0
-1 -26 0
-1 -52 0
-1 -51 0
-1 -77 0
-1 -76 0
-1 -102 0
-1 -101 0
-1 -127 0
-1 -126 0
-1 -152 0
-1 -151 0
-1 -177 0
-1 -176 0
-1 -202 0
-1 -201 0
-1 -227 0
-1 -226 0
-1 -252 0
-1 -251 0
-1 -277 0
-1 -276 0
-27 -26 0
-27 -52 0
-27 -51 0
-27 -77 0
-27 -76 0
-27 -102 0
-27 -101 0
-27 -127 0
-27 -126 0
-27 -152 0
-27 -151 0
-27 -177 0
-27 -176 0
-27 -202 0
-27 -201 0
-27 -227 0
-27 -226 0
-27 -252 0
-27 -251 0
-27 -277 0
-27 -276 0
-26 -52 0
-26 -51 0
-26 -77 0
-26 -76 0
-26 -102 0
-26 -101 0
-26 -127 0
-26 -126 0
-26 -152 0
-26 -151 0
-26 -177 0
-26 -176 0
-26 -202 0
-26 -201 0
-26 -227 0
-26 -226 0
-26 -252 0
-26 -251 0
-26 -277 0
-26 -276 0
-52 -51 0
-52 -77 0
-52 -76 0
-52 -102 0
-52 -101 0
-52 -127 0
-52 -126 0
-52 -152 0
-52 -151 0
-52 -177 0
-52 -176 0
-52 -202 0
-52 -201 0
-52 -227 0
-52 -226 0
-52 -252 0
-52 -251 0
-52 -277 0
-52 -276 0
-51 -77 0
-51 -76 0
-51 -102 0
-51 -101 0
-51 -127 0
-51 -126 0
-51 -152 0
-51 -151 0
-51 -177 0
-51 -176 0
-51 -202 0
-51 -201 0
-51 -227 0
-51 -226 0
-51 -252 0
-51 -251 0
-51 -277 0
-51 -276 0
-77 -76 0
-77 -102 0
-77 -101 0
-77 -127 0
-77 -126 0
-77 -152 0
-77 -151 0
-77 -177 0
-77 -176 0
-77 -202 0
-77 -201 0
-77 -227 0
-77 -226 0
-77 -252 0
-77 -251 0
-77 -277 0
-77 -276 0
-76 -102 0
-76 -101 0
-76 -127 0
-76 -126 0
-76 -152 0
-76 -151 0
-76 -177 0
-76 -176 0
-76 -202 0
-76 -201 0
-76 -227 0
-76 -226 0
-76 -252 0
-76 -251 0
-76 -277 0
-76 -276 0
-102 -101 0
-102 -127 0
-102 -126 0
-102 -152 0
-102 -151 0
-102 -177 0
-102 -176 0
-102 -202 0
-102 -201 0
-102 -227 0
-102 -226 0
-102 -252 0
-102 -251 0
-102 -277 0
-102 -276 0
-101 -127 0
-101 -126 0
-101 -152 0
-101 -151 0
-101 -177 0
-101 -176 0
-101 -202 0
-101 -201 0
-101 -227 0
-101 -226 0
-101 -252 0
-101 -251 0
-101 -277 0
-101 -276 0
-127 -126 0
-127 -152 0
-127 -151 0
-127 -177 0
-127 -176 0
-127 -202 0
-127 -201 0
-127 -227 0
-127 -226 0
-127 -252 0
-127 -251 0
-127 -277 0
-127 -276 0
-126 -152 0
-126 -151 0
-126 -177 0
-126 -176 0
-126 -202 0
-126 -201 0
-126 -227 0
-126 -226 0
-126 -252 0
-126 -251 0
-126 -277 0
-126 -276 0
-152 -151 0
-152 -177 0
-152 -176 0
-152 -202 0
-152 -201 0
-152 -227 0
-152 -226 0
-152 -252 0
-152 -251 0
-152 -277 0
-152 -276 0
-151 -177 0
-151 -176 0
-151 -202 0
-151 -201 0
-151 -227 0
-151 -226 0
-151 -252 0
-151 -251 0
-151 -277 0
-151 -276 0
-177 -176 0
-177 -202 0
-177 -201 0
-177 -227 0
-177 -226 0
-177 -252 0
-177 -251 0
-177 -277 0
-177 -276 0
-176 -202 0
-176 -201 0
-176 -227 0
-176 -226 0
-176 -252 0
-176 -251 0
-176 -277 0
-176 -276 0
-202 -201 0
-202 -227 0
-202 -226 0
-202 -252 0
-202 -251 0
-202 -277 0
-202 -276 0
-201 -227 0
-201 -226 0
-201 -252 0
-201 -251 0
-201 -277 0
-201 -276 0
-227 -226 0
-227 -252 0
-227 -251 0
-227 -277 0
-227 -276 0
-226 -252 0
-226 -251 0
-226 -277 0
-226 -276 0
-252 -251 0
-252 -277 0
-252 -276 0
-251 -277 0
-251 -276 0
-277 -276 0
-3 -2 0
-3 -1 0
-3 -28 0
-3 -27 0
-3 -26 0
-3 -53 0
-3 -52 0
-3 -78 0
-3 -77 0
-3 -76 0
-3 -103 0
-3 -102 0
-3 -101 0
-3 -128 0
-3 -127 0
-3 -126 0
-3 -153 0
-3 -152 0
-3 -151 0
-3 -178 0
-3 -177 0
-3 -203 0
-3 -202 0
-3 -228 0
-3 -227 0
-3 -226 0
-3 -253 0
-3 -252 0
-3 -278 0
-3 -277 0
-2 -1 0
-2 -28 0
-2 -27 0
-2 -26 0
-2 -53 0
-2 -52 0
-2 -78 0
-2 -77 0
-2 -76 0
-2 -103 0
-2 -102 0
-2 -101 0
-2 -128 0
-2 -127 0
-2 -126 0
-2 -153 0
-2 -152 0
-2 -151 0
-2 -178 0
-2 -177 0
-2 -203 0
-2 -202 0
-2 -228 0
-2 -227 0
-2 -226 0
-2 -253 0
-2 -252 0
-2 -278 0
-2 -277 0
-1 -28 0
-1 -27 0
-1 -26 0
-1 -53 0
-1 -52 0
-1 -78 0
-1 -77 0
-1 -76 0
-1 -103 0
-1 -102 0
-1 -101 0
-1 -128 0
-1 -127 0
-1 -126 0
-1 -153 0
-1 -152 0
-1 -151 0
-1 -178 0
-1 -177 0
-1 -203 0
-1 -202 0
-1 -228 0
-1 -227 0
-1 -226 0
-1 -253 0
-1 -252 0
-1 -278 0
-1 -277 0
-28 -27 0
-28 -26 0
-28 -53 0
-28 -52 0
-28 -78 0
-28 -77 0
-28 -76 0
-28 -103 0
-28 -102 0
-28 -101 0
-28 -128 0
-28 -127 0
-28 -126 0
-28 -153 0
-28 -152 0
-28 -151 0
-28 -178 0
-28 -177 0
-28 -203 0
-28 -202 0
-28 -228 0
-28 -227 0
-28 -226 0
-28 -253 0
-28 -252 0
-28 -278 0
-28 -277 0
-27 -26 0
-27 -53 0
-27 -52 0
-27 -78 0
-27 -77 0
-27 -76 0
-27 -103 0
-27 -102 0
-27 -101 0
-27 -128 0
-27 -127 0
-27 -126 0
-27 -153 0
-27 -152 0
-27 -151 0
-27 -178 0
-27 -177 0
-27 -203 0
-27 -202 0
-27 -228 0
-27 -227 0
-27 -226 0
-27 -253 0
-27 -252 0
-27 -278 0
-27 -277 0
-26 -53 0
-26 -52 0
-26 -78 0
-26 -77 0
-26 -76 0
-26 -103 0
-26 -102 0
-26 -101 0
-26 -128 0
-26 -127 0
-26 -126 0
-26 -153 0
-26 -152 0
-26 -151 0
-26 -178 0
-26 -177 0
-26 -203 0
-26 -202 0
-26 -228 0
-26 -227 0
-26 -226 0
-26 -253 0
-26 -252 0
-26 -278 0
-26 -277 0
-53 -52 0
-53 -78 0
-53 -77 0
-53 -76 0
-53 -103 0
-53 -102 0
-53 -101 0
-53 -128 0
-53 -127 0
-53 -126 0
-53 -153 0
-53 -152 0
-53 -151 0
-53 -178 0
-53 -177 0
-53 -203 0
-53 -202 0
-53 -228 0
-53 -227 0
-53 -226 0
-53 -253 0
-53 -252 0
-53 -278 0
-53 -277 0
-52 -78 0
-52 -77 0
-52 -76 0
-52 -103 0
-52 -102 0
-52 -101 0
-52 -128 0
-52 -127 0
-52 -126 0
-52 -153 0
-52 -152 0
-52 -151 0
-52 -178 0
-52 -177 0
-52 -203 0
-52 -202 0
-52 -228 0
-52 -227 0
-52 -226 0
-52 -253 0
-52 -252 0
-52 -278 0
-52 -277 0
-78 -77 0
-78 -76 0
-78 -103 0
-78 -102 0
-78 -101 0
-78 -128 0
-78 -127 0
-78 -126 0
-78 -153 0
-78 -152 0
-78 -151 0
-78 -178 0
-78 -177 0
-78 -203 0
-78 -202 0
-78 -228 0
-78 -227 0
-78 -226 0
-78 -253 0
-78 -252 0
-78 -278 0
-78 -277 0
-77 -76 0
-77 -103 0
-77 -102 0
-77 -101 0
-77 -128 0
-77 -127 0
-77 -126 0
-77 -153 0
-77 -152 0
-77 -151 0
-77 -178 0
-77 -177 0
-77 -203 0
-77 -202 0
-77 -228 0
-77 -227 0
-77 -226 0
-77 -253 0
-77 -252 0
-77 -278 0
-77 -277 0
-76 -103 0
-76 -102 0
-76 -101 0
-76 -128 0
-76 -127 0
-76 -126 0
-76 -153 0
-76 -152 0
-76 -151 0
-76 -178 0
-76 -177 0
-76 -203 0
-76 -202 0
-76 -228 0
-76 -227 0
-76 -226 0
-76 -253 0
-76 -252 0
-76 -278 0
-76 -277 0
-103 -102 0
-103 -101 0
-103 -128 0
-103 -127 0
-103 -126 0
-103 -153 0
-103 -152 0
-103 -151 0
-103 -178 0
-103 -177 0
-103 -203 0
-103 -202 0
-103 -228 0
-103 -227 0
-103 -226 0
-103 -253 0
-103 -252 0
-103 -278 0
-103 -277 0
-102 -101 0
-102 -128 0
-102 -127 0
-102 -126 0
-102 -153 0
-102 -152 0
-102 -151 0
-102 -178 0
-102 -177 0
-102 -203 0
-102 -202 0
-102 -228 0
-102 -227 0
-102 -226 0
-102 -253 0
-102 -252 0
-102 -278 0
-102 -277 0
-101 -128 0
-101 -127 0
-101 -126 0
-101 -153 0
-101 -152 0
-101 -151 0
-101 -178 0
-101 -177 0
-101 -203 0
-101 -202 0
-101 -228 0
-101 -227 0
-101 -226 0
-101 -253 0
-101 -252 0
-101 -278 0
-101 -277 0
-128 -127 0
-128 -126 0
-128 -153 0
-128 -152 0
-128 -151 0
-128 -178 0
-128 -177 0
-128 -203 0
-128 -202 0
-128 -228 0
-128 -227 0
-128 -226 0
-128 -253 0
-128 -252 0
-128 -278 0
-128 -277 0
-127 -126 0
-127 -153 0
-127 -152 0
-127 -151 0
-127 -178 0
-127 -177 0
-127 -203 0
-127 -202 0
-127 -228 0
-127 -227 0
-127 -226 0
-127 -253 0
-127 -252 0
-127 -278 0
-127 -277 0
-126 -153 0
-126 -152 0
-126 -151 0
-126 -178 0
-126 -177 0
-126 -203 0
-126 -202 0
-126 -228 0
-126 -227 0
-126 -226 0
-126 -253 0
-126 -252 0
-126 -278 0
-126 -277 0
-153 -152 0
-153 -151 0
-153 -178 0
-153 -177 0
-153 -203 0
-153 -202 0
-153 -228 0
-153 -227 0
-153 -226 0
-153 -253 0
-153 -252 0
-153 -278 0
-153 -277 0
-152 -151 0
-152 -178 0
-152 -177 0
-152 -203 0
-152 -202 0
-152 -228 0
-152 -227 0
-152 -226 0
-152 -253 0
-152 -252 0
-152 -278 0
-152 -277 0
-151 -178 0
-151 -177 0
-151 -203 0
-151 -202 0
-151 -228 0
-151 -227 0
-151 -226 0
-151 -253 0
-151 -252 0
-151 -278 0
-151 -277 0
-178 -177 0
-178 -203 0
-178 -202 0
-178 -228 0
-178 -227 0
-178 -226 0
-178 -253 0
-178 -252 0
-178 -278 0
-178 -277 0
-177 -203 0
-177 -202 0
-177 -228 0
-177 -227 0
-177 -226 0
-177 -253 0
-177 -252 0
-177 -278 0
-177 -277 0
-203 -202 0
-203 -228 0
-203 -227 0
-203 -226 0
-203 -253 0
-203 -252 0
-203 -278 0
-203 -277 0
-202 -228 0
-202 -227 0
-202 -226 0
-202 -253 0
-202 -252 0
-202 -278 0
-202 -277 0
-228 -227 0
-228 -226 0
-228 -253 0
-228 -252 0
-228 -278 0
-228 -277 0
-227 -226 0
-227 -253 0
-227 -252 0
-227 -278 0
-227 -277 0
-226 -253 0
-226 -252 0
-226 -278 0
-226 -277 0
-253 -252 0
-253 -278 0
-253 -277 0
-252 -278 0
-252 -277 0
-278 -277 0
-4 -3 0
-4 -2 0
-4 -1 0
-4 -29 0
-4 -28 0
-4 -27 0
-4 -26 0
-4 -54 0
-4 -53 0
-4 -79 0
-4 -78 0
-4 -77 0
-4 -76 0
-4 -104 0
-4 -103 0
-4 -102 0
-4 -101 0
-4 -129 0
-4 -128 0
-4 -127 0
-4 -126 0
-4 -154 0
-4 -153 0
-4 -152 0
-4 -151 0
-4 -179 0
-4 -178 0
-4 -204 0
-4 -203 0
-4 -229 0
-4 -228 0
-4 -227 0
-4 -226 0
-4 -254 0
-4 -253 0
-4 -279 0
-4 -278 0
-3 -2 0
-3 -1 0
-3 -29 0
-3 -28 0
-3 -27 0
-3 -26 0
-3 -54 0
-3 -53 0
-3 -79 0
-3 -78 0
-3 -77 0
-3 -76 0
-3 -104 0
-3 -103 0
-3 -102 0
-3 -101 0
-3 -129 0
-3 -128 0
-3 -127 0
-3 -126 0
-3 -154 0
-3 -153 0
-3 -152 0
-3 -151 0
-3 -179 0
-3 -178 0
-3 -204 0
-3 -203 0
-3 -229 0
-3 -228 0
-3 -227 0
-3 -226 0
-3 -254 0
-3 -253 0
-3 -279 0
-3 -278 0
-2 -1 0
-2 -29 0
-2 -28 0
-2 -27 0
-2 -26 0
-2 -54 0
-2 -53 0
-2 -79 0
-2 -78 0
-2 -77 0
-2 -76 0
-2 -104 0
-2 -103 0
-2 -102 0
-2 -101 0
-2 -129 0
-2 -128 0
-2 -127 0
-2 -126 0
-2 -154 0
-2 -153 0
-2 -152 0
-2 -151 0
-2 -179 0
-2 -178 0
-2 -204 0
-2 -203 0
-2 -229 0
-2 -228 0
-2 -227 0
-2 -226 0
-2 -254 0
-2 -253 0
-2 -279 0
-2 -278 0
-1 -29 0
-1 -28 0
-1 -27 0
-1 -26 0
-1 -54 0
-1 -53 0
-1 -79 0
-1 -78 0
-1 -77 0
-1 -76 0
-1 -104 0
-1 -103 0
-1 -102 0
-1 -101 0
-1 -129 0
-1 -128 0
-1 -127 0
-1 -126 0
-1 -154 0
-1 -153 0
-1 -152 0
-1 -151 0
-1 -179 0
-1 -178 0
-1 -204 0
-1 -203 0
-1 -229 0
-1 -228 0
-1 -227 0
-1 -226 0
-1 -254 0
-1 -253 0
-1 -279 0
-1 -278 0
-29 -28 0
-29 -27 0
-29 -26 0
-29 -54 0
-29 -53 0
-29 -79 0
-29 -78 0
-29 -77 0
-29 -76 0
-29 -104 0
-29 -103 0
-29 -102 0
-29 -101 0
-29 -129 0
-29 -128 0
-29 -127 0
-29 -126 0
-29 -154 0
-29 -153 0
-29 -152 0
-29 -151 0
-29 -179 0
-29 -178 0
-29 -204 0
-29 -203 0
-29 -229 0
-29 -228 0
-29 -227 0
-29 -226 0
-29 -254 0
-29 -253 0
-29 -279 0
-29 -278 0
-28 -27 0
-28 -26 0
-28 -54 0
-28 -53 0
-28 -79 0
-28 -78 0
-28 -77 0
-28 -76 0
-28 -104 0
-28 -103 0
-28 -102 0
-28 -101 0
-28 -129 0
-28 -128 0
-28 -127 0
-28 -126 0
-28 -154 0
-28 -153 0
-28 -152 0
-28 -151 0
-28 -179 0
-28 -178 0
-28 -204 0
-28 -203 0
-28 -229 0
-28 -228 0
-28 -227 0
-28 -226 0
-28 -254 0
-28 -253 0
-28 -279 0
-28 -278 0
-27 -26 0
-27 -54 0
-27 -53 0
-27 -79 0
-27 -78 0
-27 -77 0
-27 -76 0
-27 -104 0
-27 -103 0
-27 -102 0
-27 -101 0
-27 -129 0
-27 -128 0
-27 -127 0
-27 -126 0
-27 -154 0
-27 -153 0
-27 -152 0
-27 -151 0
-27 -179 0
-27 -178 0
-27 -204 0
-27 -203 0
-27 -229 0
-27 -228 0
-27 -227 0
-27 -226 0
-27 -254 0
-27 -253 0
-27 -279 0
-27 -278 0
-26 -54 0
-26 -53 0
-26 -79 0
-26 -78 0
-26 -77 0
-26 -76 0
-26 -104 0
-26 -103 0
-26 -102 0
-26 -101 0
-26 -129 0
-26 -128 0
-26 -127 0
-26 -126 0
-26 -154 0
-26 -153 0
-26 -152 0
-26 -151 0
-26 -179 0
-26 -178 0
-26 -204 0
-26 -203 0
-26 -229 0
-26 -228 0
-26 -227 0
-26 -226 0
-26 -254 0
-26 -253 0
-26 -279 0
-26 -278 0
-54 -53 0
-54 -79 0
-54 -78 0
-54 -77 0
-54 -76 0
-54 -104 0
-54 -103 0
-54 -102 0
-54 -101 0
-54 -129 0
-54 -128 0
-54 -127 0
-54 -126 0
-54 -154 0
-54 -153 0
-54 -152 0
-54 -151 0
-54 -179 0
-54 -178 0
-54 -204 0
-54 -203 0
-54 -229 0
-54 -228 0
-54 -227 0
-54 -226 0
-54 -254 0
-54 -253 0
-54 -279 0
-54 -278 0
-53 -79 0
-53 -78 0
-53 -77 0
-53 -76 0
-53 -104 0
-53 -103 0
-53 -102 0
-53 -101 0
-53 -129 0
-53 -128 0
-53 -127 0
-53 -126 0
-53 -154 0
-53 -153 0
-53 -152 0
-53 -151 0
-53 -179 0
-53 -178 0
-53 -204 0
-53 -203 0
-53 -229 0
-53 -228 0
-53 -227 0
-53 -226 0
-53 -254 0
-53 -253 0
-53 -279 0
-53 -278 0
-79 -78 0
-79 -77 0
-79 -76 0
-79 -104 0
-79 -103 0
-79 -102 0
-79 -101 0
-79 -129 0
-79 -128 0
-79 -127 0
-79 -126 0
-79 -154 0
-79 -153 0
-79 -152 0
-79 -151 0
-79 -179 0
-79 -178 0
-79 -204 0
-79 -203 0
-79 -229 0
-79 -228 0
-79 -227 0
-79 -226 0
-79 -254 0
-79 -253 0
-79 -279 0
-79 -278 0
-78 -77 0
-78 -76 0
-78 -104 0
-78 -103 0
-78 -102 0
-78 -101 0
-78 -129 0
-78 -128 0
-78 -127 0
-78 -126 0
-78 -154 0
-78 -153 0
-78 -152 0
-78 -151 0
-78 -179 0
-78 -178 0
-78 -204 0
-78 -203 0
-78 -229 0
-78 -228 0
-78 -227 0
-78 -226 0
-78 -254 0
-78 -253 0
-78 -279 0
-78 -278 0
-77 -76 0
-77 -104 0
-77 -103 0
-77 -102 0
-77 -101 0
-77 -129 0
-77 -128 0
-77 -127 0
-77 -126 0
-77 -154 0
-77 -153 0
-77 -152 0
-77 -151 0
-77 -179 0
-77 -178 0
-77 -204 0
-77 -203 0
-77 -229 0
-77 -228 0
-77 -227 0
-77 -226 0
-77 -254 0
-77 -253 0
-77 -279 0
-77 -278 0
-76 -104 0
-76 -103 0
-76 -102 0
-76 -101 0
-76 -129 0
-76 -128 0
-76 -127 0
-76 -126 0
-76 -154 0
-76 -153 0
-76 -152 0
-76 -151 0
-76 -179 0
-76 -178 0
-76 -204 0
-76 -203 0
-76 -229 0
-76 -228 0
-76 -227 0
-76 -226 0
-76 -254 0
-76 -253 0
-76 -279 0
-76 -278 0
-104 -103 0
-104 -102 0
-104 -101 0
-104 -129 0
-104 -128 0
-104 -127 0
-104 -126 0
-104 -154 0
-104 -153 0
-104 -152 0
-104 -151 0
-104 -179 0
-104 -178 0
-104 -204 0
-104 -203 0
-104 -229 0
-104 -228 0
-104 -227 0
-104 -226 0
-104 -254 0
-104 -253 0
-104 -279 0
-104 -278 0
-103 -102 0
-103 -101 0
-103 -129 0
-103 -128 0
-103 -127 0
-103 -126 0
-103 -154 0
-103 -153 0
-103 -152 0
-103 -151 0
-103 -179 0
-103 -178 0
-103 -204 0
-103 -203 0
-103 -229 0
-103 -228 0
-103 -227 0
-103 -226 0
-103 -254 0
-103 -253 0
-103 -279 0
-103 -278 0
-102 -101 0
-102 -129 0
-102 -128 0
-102 -127 0
-102 -126 0
-102 -154 0
-102 -153 0
-102 -152 0
-102 -151 0
-102 -179 0
-102 -178 0
-102 -204 0
-102 -203 0
-102 -229 0
-102 -228 0
-102 -227 0
-102 -226 0
-102 -254 0
-102 -253 0
-102 -279 0
-102 -278 0
-101 -129 0
-101 -128 0
-101 -127 0
-101 -126 0
-101 -154 0
-101 -153 0
-101 -152 0
-101 -151 0
-101 -179 0
-101 -178 0
-101 -204 0
-101 -203 0
-101 -229 0
-101 -228 0
-101 -227 0
-101 -226 0
-101 -254 0
-101 -253 0
-101 -279 0
-101 -278 0
-129 -128 0
-129 -127 0
-129 -126 0
-129 -154 0
-129 -153 0
-129 -152 0
-129 -151 0
-129 -179 0
-129 -178 0
-129 -204 0
-129 -203 0
-129 -229 0
-129 -228 0
-129 -227 0
-129 -226 0
-129 -254 0
-129 -253 0
-129 -279 0
-129 -278 0
-128 -127 0
-128 -126 0
-128 -154 0
-128 -153 0
-128 -152 0
-128 -151 0
-128 -179 0
-128 -178 0
-128 -204 0
-128 -203 0
-128 -229 0
-128 -228 0
-128 -227 0
-128 -226 0
-128 -254 0
-128 -253 0
-128 -279 0
-128 -278 0
-127 -126 0
-127 -154 0
-127 -153 0
-127 -152 0
-127 -151 0
-127 -179 0
-127 -178 0
-127 -204 0
-127 -203 0
-127 -229 0
-127 -228 0
-127 -227 0
-127 -226 0
-127 -254 0
-127 -253 0
-127 -279 0
-127 -278 0
-126 -154 0
-126 -153 0
-126 -152 0
-126 -151 0
-126 -179 0
-126 -178 0
-126 -204 0
-126 -203 0
-126 -229 0
-126 -228 0
-126 -227 0
-126 -226 0
-126 -254 0
-126 -253 0
-126 -279 0
-126 -278 0
-154 -153 0
-154 -152 0
-154 -151 0
-154 -179 0
-154 -178 0
-154 -204 0
-154 -203 0
-154 -229 0
-154 -228 0
-154 -227 0
-154 -226 0
-154 -254 0
-154 -253 0
-154 -279 0
-154 -278 0
-153 -152 0
-153 -151 0
-153 -179 0
-153 -178 0
-153 -204 0
-153 -203 0
-153 -229 0
-153 -228 0
-153 -227 0
-153 -226 0
-153 -254 0
-153 -253 0
-153 -279 0
-153 -278 0
-152 -151 0
-152 -179 0
-152 -178 0
-152 -204 0
-152 -203 0
-152 -229 0
-152 -228 0
-152 -227 0
-152 -226 0
-152 -254 0
-152 -253 0
-152 -279 0
-152 -278 0
-151 -179 0
-151 -178 0
-151 -204 0
-151 -203 0
-151 -229 0
-151 -228 0
-151 -227 0
-151 -226 0
-151 -254 0
-151 -253 0
-151 -279 0
-151 -278 0
-179 -178 0
-179 -204 0
-179 -203 0
-179 -229 0
-179 -228 0
-179 -227 0
-179 -226 0
-179 -254 0
-179 -253 0
-179 -279 0
-179 -278 0
-178 -204 0
-178 -203 0
-178 -229 0
-178 -228 0
-178 -227 0
-178 -226 0
-178 -254 0
-178 -253 0
-178 -279 0
-178 -278 0
-204 -203 0
-204 -229 0
-204 -228 0
-204 -227 0
-204 -226 0
-204 -254 0
-204 -253 0
-204 -279 0
-204 -278 0
-203 -229 0
-203 -228 0
-203 -227 0
-203 -226 0
-203 -254 0
-203 -253 0
-203 -279 0
-203 -278 0
-229 -228 0
-229 -227 0
-229 -226 0
-229 -254 0
-229 -253 0
-229 -279 0
-229 -278 0
-228 -227 0
-228 -226 0
-228 -254 0
-228 -253 0
-228 -279 0
-228 -278 0
-227 -226 0
-227 -254 0
-227 -253 0
-227 -279 0
-227 -278 0
-226 -254 0
-226 -253 0
-226 -279 0
-226 -278 0
-254 -253 0
-254 -279 0
-254 -278 0
-253 -279 0
-253 -278 0
-279 -278 0
-5 -4 0
-5 -3 0
-5 -2 0
-5 -1 0
-5 -30 0
-5 -29 0
-5 -28 0
-5 -27 0
-5 -26 0
-5 -55 0
-5 -54 0
-5 -80 0
-5 -79 0
-5 -78 0
-5 -77 0
-5 -105 0
-5 -104 0
-5 -103 0
-5 -102 0
-5 -101 0
-5 -130 0
-5 -129 0
-5 -128 0
-5 -127 0
-5 -126 0
-5 -155 0
-5 -154 0
-5 -153 0
-5 -152 0
-5 -180 0
-5 -179 0
-5 -205 0
-5 -204 0
-5 -230 0
-5 -229 0
-5 -228 0
-5 -227 0
-5 -255 0
-5 -254 0
-5 -280 0
-5 -279 0
-4 -3 0
-4 -2 0
-4 -1 0
-4 -30 0
-4 -29 0
-4 -28 0
-4 -27 0
-4 -26 0
-4 -55 0
-4 -54 0
-4 -80 0
-4 -79 0
-4 -78 0
-4 -77 0
-4 -105 0
-4 -104 0
-4 -103 0
-4 -102 0
-4 -101 0
-4 -130 0
-4 -129 0
-4 -128 0
-4 -127 0
-4 -126 0
-4 -155 0
-4 -154 0
-4 -153 0
-4 -152 0
-4 -180 0
-4 -179 0
-4 -205 0
-4 -204 0
-4 -230 0
-4 -229 0
-4 -228 0
-4 -227 0
-4 -255 0
-4 -254 0
-4 -280 0
-4 -279 0
-3 -2 0
-3 -1 0
-3 -30 0
-3 -29 0
-3 -28 0
-3 -27 0
-3 -26 0
-3 -55 0
-3 -54 0
-3 -80 0
-3 -79 0
-3 -78 0
-3 -77 0
-3 -105 0
-3 -104 0
-3 -103 0
-3 -102 0
-3 -101 0
-3 -130 0
-3 -129 0
-3 -128 0
-3 -127 0
-3 -126 0
-3 -155 0
-3 -154 0
-3 -153 0
-3 -152 0
-3 -180 0
-3 -179 0
-3 -205 0
-3 -204 0
-3 -230 0
-3 -229 0
-3 -228 0
-3 -227 0
-3 -255 0
-3 -254 0
-3 -280 0
-3 -279 0
-2 -1 0
-2 -30 0
-2 -29 0
-2 -28 0
-2 -27 0
-2 -26 0
-2 -55 0
-2 -54 0
-2 -80 0
-2 -79 0
-2 -78 0
-2 -77 0
-2 -105 0
-2 -104 0
-2 -103 0
-2 -102 0
-2 -101 0
-2 -130 0
-2 -129 0
-2 -128 0
-2 -127 0
-2 -126 0
-2 -155 0
-2 -154 0
-2 -153 0
-2 -152 0
-2 -180 0
-2 -179 0
-2 -205 0
-2 -204 0
-2 -230 0
-2 -229 0
-2 -228 0
-2 -227 0
-2 -255 0
-2 -254 0
-2 -280 0
-2 -279 0
-1 -30 0
-1 -29 0
-1 -28 0
-1 -27 0
-1 -26 0
-1 -55 0
-1 -54 0
-1 -80 0
-1 -79 0
-1 -78 0
-1 -77 0
-1 -105 0
-1 -104 0
-1 -103 0
-1 -102 0
-1 -101 0
-1 -130 0
-1 -129 0
-1 -128 0
-1 -127 0
-1 -126 0
-1 -155 0
-1 -154 0
-1 -153 0
-1 -152 0
-1 -180 0
-1 -179 0
-1 -205 0
-1 -204 0
-1 -230 0
-1 -229 0
-1 -228 0
-1 -227 0
-1 -255 0
-1 -254 0
-1 -280 0
-1 -279 0
-30 -29 0
-30 -28 0
-30 -27 0
-30 -26 0
-30 -55 0
-30 -54 0
-30 -80 0
-30 -79 0
-30 -78 0
-30 -77 0
-30 -105 0
-30 -104 0
-30 -103 0
-30 -102 0
-30 -101 0
-30 -130 0
-30 -129 0
-30 -128 0
-30 -127 0
-30 -126 0
-30 -155 0
-30 -154 0
-30 -153 0
-30 -152 0
-30 -180 0
-30 -179 0
-30 -205 0
-30 -204 0
-30 -230 0
-30 -229 0
-30 -228 0
-30 -227 0
-30 -255 0
-30 -254 0
-30 -280 0
-30 -279 0
-29 -28 0
-29 -27 0
-29 -26 0
-29 -55 0
-29 -54 0
-29 -80 0
-29 -79 0
-29 -78 0
-29 -77 0
-29 -105 0
-29 -104 0
-29 -103 0
-29 -102 0
-29 -101 0
-29 -130 0
-29 -129 0
-29 -128 0
-29 -127 0
-29 -126 0
-29 -155 0
-29 -154 0
-29 -153 0
-29 -152 0
-29 -180 0
-29 -179 0
-29 -205 0
-29 -204 0
-29 -230 0
-29 -229 0
-29 -228 0
-29 -227 0
-29 -255 0
-29 -254 0
-29 -280 0
-29 -279 0
-28 -27 0
-28 -26 0
-28 -55 0
-28 -54 0
-28 -80 0
-28 -79 0
-28 -78 0
-28 -77 0
-28 -105 0
-28 -104 0
-28 -103 0
-28 -102 0
-28 -101 0
-28 -130 0
-28 -129 0
-28 -128 0
-28 -127 0
-28 -126 0
-28 -155 0
-28 -154 0
-28 -153 0
-28 -152 0
-28 -180 0
-28 -179 0
-28 -205 0
-28 -204 0
-28 -230 0
-28 -229 0
-28 -228 0
-28 -227 0
-28 -255 0
-28 -254 0
-28 -280 0
-28 -279 0
-27 -26 0
-27 -55 0
-27 -54 0
-27 -80 0
-27 -79 0
-27 -78 0
-27 -77 0
-27 -105 0
-27 -104 0
-27 -103 0
-27 -102 0
-27 -101 0
-27 -130 0
-27 -129 0
-27 -128 0
-27 -127 0
-27 -126 0
-27 -155 0
-27 -154 0
-27 -153 0
-27 -152 0
-27 -180 0
-27 -179 0
-27 -205 0
-27 -204 0
-27 -230 0
-27 -229 0
-27 -228 0
-27 -227 0
-27 -255 0
-27 -254 0
-27 -280 0
-27 -279 0
-26 -55 0
-26 -54 0
-26 -80 0
-26 -79 0
-26 -78 0
-26 -77 0
-26 -105 0
-26 -104 0
-26 -103 0
-26 -102 0
-26 -101 0
-26 -130 0
-26 -129 0
-26 -128 0
-26 -127 0
-26 -126 0
-26 -155 0
-26 -154 0
-26 -153 0
-26 -152 0
-26 -180 0
-26 -179 0
-26 -205 0
-26 -204 0
-26 -230 0
-26 -229 0
-26 -228 0
-26 -227 0
-26 -255 0
-26 -254 0
-26 -280 0
-26 -279 0
-55 -54 0
-55 -80 0
-55 -79 0
-55 -78 0
-55 -77 0
-55 -105 0
-55 -104 0
-55 -103 0
-55 -102 0
-55 -101 0
-55 -130 0
-55 -129 0
-55 -128 0
-55 -127 0
-55 -126 0
-55 -155 0
-55 -154 0
-55 -153 0
-55 -152 0
-55 -180 0
-55 -179 0
-55 -205 0
-55 -204 0
-55 -230 0
-55 -229 0
-55 -228 0
-55 -227 0
-55 -255 0
-55 -254 0
-55 -280 0
-55 -279 0
-54 -80 0
-54 -79 0
-54 -78 0
-54 -77 0
-54 -105 0
-54 -104 0
-54 -103 0
-54 -102 0
-54 -101 0
-54 -130 0
-54 -129 0
-54 -128 0
-54 -127 0
-54 -126 0
-54 -155 0
-54 -154 0
-54 -153 0
-54 -152 0
-54 -180 0
-54 -179 0
-54 -205 0
-54 -204 0
-54 -230 0
-54 -229 0
-54 -228 0
-54 -227 0
-54 -255 0
-54 -254 0
-54 -280 0
-54 -279 0
-80 -79 0
-80 -78 0
-80 -77 0
-80 -105 0
-80 -104 0
-80 -103 0
-80 -102 0
-80 -101 0
-80 -130 0
-80 -129 0
-80 -128 0
-80 -127 0
-80 -126 0
-80 -155 0
-80 -154 0
-80 -153 0
-80 -152 0
-80 -180 0
-80 -179 0
-80 -205 0
-80 -204 0
-80 -230 0
-80 -229 0
-80 -228 0
-80 -227 0
-80 -255 0
-80 -254 0
-80 -280 0
-80 -279 0
-79 -78 0
-79 -77 0
-79 -105 0
-79 -104 0
-79 -103 0
-79 -102 0
-79 -101 0
-79 -130 0
-79 -129 0
-79 -128 0
-79 -127 0
-79 -126 0
-79 -155 0
-79 -154 0
-79 -153 0
-79 -152 0
-79 -180 0
-79 -179 0
-79 -205 0
-79 -204 0
-79 -230 0
-79 -229 0
-79 -228 0
-79 -227 0
-79 -255 0
-79 -254 0
-79 -280 0
-79 -279 0
-78 -77 0
-78 -105 0
-78 -104 0
-78 -103 0
-78 -102 0
-78 -101 0
-78 -130 0
-78 -129 0
-78 -128 0
-78 -127 0
-78 -126 0
-78 -155 0
-78 -154 0
-78 -153 0
-78 -152 0
-78 -180 0
-78 -179 0
-78 -205 0
-78 -204 0
-78 -230 0
-78 -229 0
-78 -228 0
-78 -227 0
-78 -255 0
-78 -254 0
-78 -280 0
-78 -279 0
-77 -105 0
-77 -104 0
-77 -103 0
-77 -102 0
-77 -101 0
-77 -130 0
-77 -129 0
-77 -128 0
-77 -127 0
-77 -126 0
-77 -155 0
-77 -154 0
-77 -153 0
-77 -152 0
-77 -180 0
-77 -179 0
-77 -205 0
-77 -204 0
-77 -230 0
-77 -229 0
-77 -228 0
-77 -227 0
-77 -255 0
-77 -254 0
-77 -280 0
-77 -279 0
-105 -104 0
-105 -103 0
-105 -102 0
-105 -101 0
-105 -130 0
-105 -129 0
-105 -128 0
-105 -127 0
-105 -126 0
-105 -155 0
-105 -154 0
-105 -153 0
-105 -152 0
-105 -180 0
-105 -179 0
-105 -205 0
-105 -204 0
-105 -230 0
-105 -229 0
-105 -228 0
-105 -227 0
-105 -255 0
-105 -254 0
-105 -280 0
-105 -279 0
-104 -103 0
-104 -102 0
-104 -101 0
-104 -130 0
-104 -129 0
-104 -128 0
-104 -127 0
-104 -126 0
-104 -155 0
-104 -154 0
-104 -153 0
-104 -152 0
-104 -180 0
-104 -179 0
-104 -205 0
-104 -204 0
-104 -230 0
-104 -229 0
-104 -228 0
-104 -227 0
-104 -255 0
-104 -254 0
-104 -280 0
-104 -279 0
-103 -102 0
-103 -101 0
-103 -130 0
-103 -129 0
-103 -128 0
-103 -127 0
-103 -126 0
-103 -155 0
-103 -154 0
-103 -153 0
-103 -152 0
-103 -180 0
-103 -179 0
-103 -205 0
-103 -204 0
-103 -230 0
-103 -229 0
-103 -228 0
-103 -227 0
-103 -255 0
-103 -254 0
-103 -280 0
-103 -279 0
-102 -101 0
-102 -130 0
-102 -129 0
-102 -128 0
-102 -127 0
-102 -126 0
-102 -155 0
-102 -154 0
-102 -153 0
-102 -152 0
-102 -180 0
-102 -179 0
-102 -205 0
-102 -204 0
-102 -230 0
-102 -229 0
-102 -228 0
-102 -227 0
-102 -255 0
-102 -254 0
-102 -280 0
-102 -279 0
-101 -130 0
-101 -129 0
-101 -128 0
-101 -127 0
-101 -126 0
-101 -155 0
-101 -154 0
-101 -153 0
-101 -152 0
-101 -180 0
-101 -179 0
-101 -205 0
-101 -204 0
-101 -230 0
-101 -229 0
-101 -228 0
-101 -227 0
-101 -255 0
-101 -254 0
-101 -280 0
-101 -279 0
-130 -129 0
-130 -128 0
-130 -127 0
-130 -126 0
-130 -155 0
-130 -154 0
-130 -153 0
-130 -152 0
-130 -180 0
-130 -179 0
-130 -205 0
-130 -204 0
-130 -230 0
-130 -229 0
-130 -228 0
-130 -227 0
-130 -255 0
-130 -254 0
-130 -280 0
-130 -279 0
-129 -128 0
-129 -127 0
-129 -126 0
-129 -155 0
-129 -154 0
-129 -153 0
-129 -152 0
-129 -180 0
-129 -179 0
-129 -205 0
-129 -204 0
-129 -230 0
-129 -229 0
-129 -228 0
-129 -227 0
-129 -255 0
-129 -254 0
-129 -280 0
-129 -279 0
-128 -127 0
-128 -126 0
-128 -155 0
-128 -154 0
-128 -153 0
-128 -152 0
-128 -180 0
-128 -179 0
-128 -205 0
-128 -204 0
-128 -230 0
-128 -229 0
-128 -228 0
-128 -227 0
-128 -255 0
-128 -254 0
-128 -280 0
-128 -279 0
-127 -126 0
-127 -155 0
-127 -154 0
-127 -153 0
-127 -152 0
-127 -180 0
-127 -179 0
-127 -205 0
-127 -204 0
-127 -230 0
-127 -229 0
-127 -228 0
-127 -227 0
-127 -255 0
-127 -254 0
-127 -280 0
-127 -279 0
-126 -155 0
-126 -154 0
-126 -153 0
-126 -152 0
-126 -180 0
-126 -179 0
-126 -205 0
-126 -204 0
-126 -230 0
-126 -229 0
-126 -228 0
-126 -227 0
-126 -255 0
-126 -254 0
-126 -280 0
-126 -279 0
-155 -154 0
-155 -153 0
-155 -152 0
-155 -180 0
-155 -179 0
-155 -205 0
-155 -204 0
-155 -230 0
-155 -229 0
-155 -228 0
-155 -227 0
-155 -255 0
-155 -254 0
-155 -280 0
-155 -279 0
-154 -153 0
-154 -152 0
-154 -180 0
-154 -179 0
-154 -205 0
-154 -204 0
-154 -230 0
-154 -229 0
-154 -228 0
-154 -227 0
-154 -255 0
-154 -254 0
-154 -280 0
-154 -279 0
-153 -152 0
-153 -180 0
-153 -179 0
-153 -205 0
-153 -204 0
-153 -230 0
-153 -229 0
-153 -228 0
-153 -227 0
-153 -255 0
-153 -254 0
-153 -280 0
-153 -279 0
-152 -180 0
-152 -179 0
-152 -205 0
-152 -204 0
-152 -230 0
-152 -229 0
-152 -228 0
-152 -227 0
-152 -255 0
-152 -254 0
-152 -280 0
-152 -279 0
-180 -179 0
-180 -205 0
-180 -204 0
-180 -230 0
-180 -229 0
-180 -228 0
-180 -227 0
-180 -255 0
-180 -254 0
-180 -280 0
-180 -279 0
-179 -205 0
-179 -204 0
-179 -230 0
-179 -229 0
-179 -228 0
-179 -227 0
-179 -255 0
-179 -254 0
-179 -280 0
-179 -279 0
-205 -204 0
-205 -230 0
-205 -229 0
-205 -228 0
-205 -227 0
-205 -255 0
-205 -254 0
-205 -280 0
-205 -279 0
-204 -230 0
-204 -229 0
-204 -228 0
-204 -227 0
-204 -255 0
-204 -254 0
-204 -280 0
-204 -279 0
-230 -229 0
-230 -228 0
-230 -227 0
-230 -255 0
-230 -254 0
-230 -280 0
-230 -279 0
-229 -228 0
-229 -227 0
-229 -255 0
-229 -254 0
-229 -280 0
-229 -279 0
-228 -227 0
-228 -255 0
-228 -254 0
-228 -280 0
-228 -279 0
-227 -255 0
-227 -254 0
-227 -280 0
-227 -279 0
-255 -254 0
-255 -280 0
-255 -279 0
-254 -280 0
-254 -279 0
-280 -279 0
-6 -5 0
-6 -4 0
-6 -3 0
-6 -2 0
-6 -1 0
-6 -31 0
-6 -30 0
-6 -29 0
-6 -28 0
-6 -27 0
-6 -26 0
-6 -56 0
-6 -55 0
-6 -81 0
-6 -80 0
-6 -79 0
-6 -78 0
-6 -106 0
-6 -105 0
-6 -104 0
-6 -103 0
-6 -102 0
-6 -101 0
-6 -131 0
-6 -130 0
-6 -129 0
-6 -128 0
-6 -127 0
-6 -126 0
-6 -156 0
-6 -155 0
-6 -154 0
-6 -153 0
-6 -181 0
-6 -180 0
-6 -206 0
-6 -205 0
-6 -231 0
-6 -230 0
-6 -229 0
-6 -228 0
-6 -256 0
-6 -255 0
-6 -281 0
-6 -280 0
-5 -4 0
-5 -3 0
-5 -2 0
-5 -1 0
-5 -31 0
-5 -30 0
-5 -29 0
-5 -28 0
-5 -27 0
-5 -26 0
-5 -56 0
-5 -55 0
-5 -81 0
-5 -80 0
-5 -79 0
-5 -78 0
-5 -106 0
-5 -105 0
-5 -104 0
-5 -103 0
-5 -102 0
-5 -101 0
-5 -131 0
-5 -130 0
-5 -129 0
-5 -128 0
-5 -127 0
-5 -126 0
-5 -156 0
-5 -155 0
-5 -154 0
-5 -153 0
-5 -181 0
-5 -180 0
-5 -206 0
-5 -205 0
-5 -231 0
-5 -230 0
-5 -229 0
-5 -228 0
-5 -256 0
-5 -255 0
-5 -281 0
-5 -280 0
-4 -3 0
-4 -2 0
-4 -1 0
-4 -31 0
-4 -30 0
-4 -29 0
-4 -28 0
-4 -27 0
-4 -26 0
-4 -56 0
-4 -55 0
-4 -81 0
-4 -80 0
-4 -79 0
-4 -78 0
-4 -106 0
-4 -105 0
-4 -104 0
-4 -103 0
-4 -102 0
-4 -101 0
-4 -131 0
-4 -130 0
-4 -129 0
-4 -128 0
-4 -127 0
-4 -126 0
-4 -156 0
-4 -155 0
-4 -154 0
-4 -153 0
-4 -181 0
-4 -180 0
-4 -206 0
-4 -205 0
-4 -231 0
-4 -230 0
-4 -229 0
-4 -228 0
-4 -256 0
-4 -255 0
-4 -281 0
-4 -280 0
-3 -2 0
-3 -1 0
-3 -31 0
-3 -30 0
-3 -29 0
-3 -28 0
-3 -27 0
-3 -26 0
-3 -56 0
-3 -55 0
-3 -81 0
-3 -80 0
-3 -79 0
-3 -78 0
-3 -106 0
-3 -105 0
-3 -104 0
-3 -103 0
-3 -102 0
-3 -101 0
-3 -131 0
-3 -130 0
-3 -129 0
-3 -128 0
-3 -127 0
-3 -126 0
-3 -156 0
-3 -155 0
-3 -154 0
-3 -153 0
-3 -181 0
-3 -180 0
-3 -206 0
-3 -205 0
-3 -231 0
-3 -230 0
-3 -229 0
-3 -228 0
-3 -256 0
-3 -255 0
-3 -281 0
-3 -280 0
-2 -1 0
-2 -31 0
-2 -30 0
-2 -29 0
-2 -28 0
-2 -27 0
-2 -26 0
-2 -56 0
-2 -55 0
-2 -81 0
-2 -80 0
-2 -79 0
-2 -78 0
-2 -106 0
-2 -105 0
-2 -104 0
-2 -103 0
-2 -102 0
-2 -101 0
-2 -131 0
-2 -130 0
-2 -129 0
-2 -128 0
-2 -127 0
-2 -126 0
-2 -156 0
-2 -155 0
-2 -154 0
-2 -153 0
-2 -181 0
-2 -180 0
-2 -206 0
-2 -205 0
-2 -231 0
-2 -230 0
-2 -229 0
-2 -228 0
-2 -256 0
-2 -255 0
-2 -281 0
-2 -280 0
-1 -31 0
-1 -30 0
-1 -29 0
-1 -28 0
-1 -27 0
-1 -26 0
-1 -56 0
-1 -55 0
-1 -81 0
-1 -80 0
-1 -79 0
-1 -78 0
-1 -106 0
-1 -105 0
-1 -104 0
-1 -103 0
-1 -102 0
-1 -101 0
-1 -131 0
-1 -130 0
-1 -129 0
-1 -128 0
-1 -127 0
-1 -126 0
-1 -156 0
-1 -155 0
-1 -154 0
-1 -153 0
-1 -181 0
-1 -180 0
-1 -206 0
-1 -205 0
-1 -231 0
-1 -230 0
-1 -229 0
-1 -228 0
-1 -256 0
-1 -255 0
-1 -281 0
-1 -280 0
-31 -30 0
-31 -29 0
-31 -28 0
-31 -27 0
-31 -26 0
-31 -56 0
-31 -55 0
-31 -81 0
-31 -80 0
-31 -79 0
-31 -78 0
-31 -106 0
-31 -105 0
-31 -104 0
-31 -103 0
-31 -102 0
-31 -101 0
-31 -131 0
-31 -130 0
-31 -129 0
-31 -128 0
-31 -127 0
-31 -126 0
-31 -156 0
-31 -155 0
-31 -154 0
-31 -153 0
-31 -181 0
-31 -180 0
-31 -206 0
-31 -205 0
-31 -231 0
-31 -230 0
-31 -229 0
-31 -228 0
-31 -256 0
-31 -255 0
-31 -281 0
-31 -280 0
-30 -29 0
-30 -28 0
-30 -27 0
-30 -26 0
-30 -56 0
-30 -55 0
-30 -81 0
-30 -80 0
-30 -79 0
-30 -78 0
-30 -106 0
-30 -105 0
-30 -104 0
-30 -103 0
-30 -102 0
-30 -101 0
-30 -131 0
-30 -130 0
-30 -129 0
-30 -128 0
-30 -127 0
-30 -126 0
-30 -156 0
-30 -155 0
-30 -154 0
-30 -153 0
-30 -181 0
-30 -180 0
-30 -206 0
-30 -205 0
-30 -231 0
-30 -230 0
-30 -229 0
-30 -228 0
-30 -256 0
-30 -255 0
-30 -281 0
-30 -280 0
-29 -28 0
-29 -27 0
-29 -26 0
-29 -56 0
-29 -55 0
-29 -81 0
-29 -80 0
-29 -79 0
-29 -78 0
-29 -106 0
-29 -105 0
-29 -104 0
-29 -103 0
-29 -102 0
-29 -101 0
-29 -131 0
-29 -130 0
-29 -129 0
-29 -128 0
-29 -127 0
-29 -126 0
-29 -156 0
-29 -155 0
-29 -154 0
-29 -153 0
-29 -181 0
-29 -180 0
-29 -206 0
-29 -205 0
-29 -231 0
-29 -230 0
-29 -229 0
-29 -228 0
-29 -256 0
-29 -255 0
-29 -281 0
-29 -280 0
-28 -27 0
-28 -26 0
-28 -56 0
-28 -55 0
-28 -81 0
-28 -80 0
-28 -79 0
-28 -78 0
-28 -106 0
-28 -105 0
-28 -104 0
-28 -103 0
-28 -102 0
-28 -101 0
-28 -131 0
-28 -130 0
-28 -129 0
-28 -128 0
-28 -127 0
-28 -126 0
-28 -156 0
-28 -155 0
-28 -154 0
-28 -153 0
-28 -181 0
-28 -180 0
-28 -206 0
-28 -205 0
-28 -231 0
-28 -230 0
-28 -229 0
-28 -228 0
-28 -256 0
-28 -255 0
-28 -281 0
-28 -280 0
-27 -26 0
-27 -56 0
-27 -55 0
-27 -81 0
-27 -80 0
-27 -79 0
-27 -78 0
-27 -106 0
-27 -105 0
-27 -104 0
-27 -103 0
-27 -102 0
-27 -101 0
-27 -131 0
-27 -130 0
-27 -129 0
-27 -128 0
-27 -127 0
-27 -126 0
-27 -156 0
-27 -155 0
-27 -154 0
-27 -153 0
-27 -181 0
-27 -180 0
-27 -206 0
-27 -205 0
-27 -231 0
-27 -230 0
-27 -229 0
-27 -228 0
-27 -256 0
-27 -255 0
-27 -281 0
-27 -280 0
-26 -56 0
-26 -55 0
-26 -81 0
-26 -80 0
-26 -79 0
-26 -78 0
-26 -106 0
-26 -105 0
-26 -104 0
-26 -103 0
-26 -102 0
-26 -101 0
-26 -131 0
-26 -130 0
-26 -129 0
-26 -128 0
-26 -127 0
-26 -126 0
-26 -156 0
-26 -155 0
-26 -154 0
-26 -153 0
-26 -181 0
-26 -180 0
-26 -206 0
-26 -205 0
-26 -231 0
-26 -230 0
-26 -229 0
-26 -228 0
-26 -256 0
-26 -255 0
-26 -281 0
-26 -280 0
-56 -55 0
-56 -81 0
-56 -80 0
-56 -79 0
-56 -78 0
-56 -106 0
-56 -105 0
-56 -104 0
-56 -103 0
-56 -102 0
-56 -101 0
-56 -131 0
-56 -130 0
-56 -129 0
-56 -128 0
-56 -127 0
-56 -126 0
-56 -156 0
-56 -155 0
-56 -154 0
-56 -153 0
-56 -181 0
-56 -180 0
-56 -206 0
-56 -205 0
-56 -231 0
-56 -230 0
-56 -229 0
-56 -228 0
-56 -256 0
-56 -255 0
-56 -281 0
-56 -280 0
-55 -81 0
-55 -80 0
-55 -79 0
-55 -78 0
-55 -106 0
-55 -105 0
-55 -104 0
-55 -103 0
-55 -102 0
-55 -101 0
-55 -131 0
-55 -130 0
-55 -129 0
-55 -128 0
-55 -127 0
-55 -126 0
-55 -156 0
-55 -155 0
-55 -154 0
-55 -153 0
-55 -181 0
-55 -180 0
-55 -206 0
-55 -205 0
-55 -231 0
-55 -230 0
-55 -229 0
-55 -228 0
-55 -256 0
-55 -255 0
-55 -281 0
-55 -280 0
-81 -80 0
-81 -79 0
-81 -78 0
-81 -106 0
-81 -105 0
-81 -104 0
-81 -103 0
-81 -102 0
-81 -101 0
-81 -131 0
-81 -130 0
-81 -129 0
-81 -128 0
-81 -127 0
-81 -126 0
-81 -156 0
-81 -155 0
-81 -154 0
-81 -153 0
-81 -181 0
-81 -180 0
-81 -206 0
-81 -205 0
-81 -231 0
-81 -230 0
-81 -229 0
-81 -228 0
-81 -256 0
-81 -255 0
-81 -281 0
-81 -280 0
-80 -79 0
-80 -78 0
-80 -106 0
-80 -105 0
-80 -104 0
-80 -103 0
-80 -102 0
-80 -101 0
-80 -131 0
-80 -130 0
-80 -129 0
-80 -128 0
-80 -127 0
-80 -126 0
-80 -156 0
-80 -155 0
-80 -154 0
-80 -153 0
-80 -181 0
-80 -180 0
-80 -206 0
-80 -205 0
-80 -231 0
-80 -230 0
-80 -229 0
-80 -228 0
-80 -256 0
-80 -255 0
-80 -281 0
-80 -280 0
-79 -78 0
-79 -106 0
-79 -105 0
-79 -104 0
-79 -103 0
-79 -102 0
-79 -101 0
-79 -131 0
-79 -130 0
-79 -129 0
-79 -128 0
-79 -127 0
-79 -126 0
-79 -156 0
-79 -155 0
-79 -154 0
-79 -153 0
-79 -181 0
-79 -180 0
-79 -206 0
-79 -205 0
-79 -231 0
-79 -230 0
-79 -229 0
-79 -228 0
-79 -256 0
-79 -255 0
-79 -281 0
-79 -280 0
-78 -106 0
-78 -105 0
-78 -104 0
-78 -103 0
-78 -102 0
-78 -101 0
-78 -131 0
-78 -130 0
-78 -129 0
-78 -128 0
-78 -127 0
-78 -126 0
-78 -156 0
-78 -155 0
-78 -154 0
-78 -153 0
-78 -181 0
-78 -180 0
-78 -206 0
-78 -205 0
-78 -231 0
-78 -230 0
-78 -229 0
-78 -228 0
-78 -256 0
-78 -255 0
-78 -281 0
-78 -280 0
-106 -105 0
-106 -104 0
-106 -103 0
-106 -102 0
-106 -101 0
-106 -131 0
-106 -130 0
-106 -129 0
-106 -128 0
-106 -127 0
-106 -126 0
-106 -156 0
-106 -155 0
-106 -154 0
-106 -153 0
-106 -181 0
-106 -180 0
-106 -206 0
-106 -205 0
-106 -231 0
-106 -230 0
-106 -229 0
-106 -228 0
-106 -256 0
-106 -255 0
-106 -281 0
-106 -280 0
-105 -104 0
-105 -103 0
-105 -102 0
-105 -101 0
-105 -131 0
-105 -130 0
-105 -129 0
-105 -128 0
-105 -127 0
-105 -126 0
-105 -156 0
-105 -155 0
-105 -154 0
-105 -153 0
-105 -181 0
-105 -180 0
-105 -206 0
-105 -205 0
-105 -231 0
-105 -230 0
-105 -229 0
-105 -228 0
-105 -256 0
-105 -255 0
-105 -281 0
-105 -280 0
-104 -103 0
-104 -102 0
-104 -101 0
-104 -131 0
-104 -130 0
-104 -129 0
-104 -128 0
-104 -127 0
-104 -126 0
-104 -156 0
-104 -155 0
-104 -154 0
-104 -153 0
-104 -181 0
-104 -180 0
-104 -206 0
-104 -205 0
-104 -231 0
-104 -230 0
-104 -229 0
-104 -228 0
-104 -256 0
-104 -255 0
-104 -281 0
-104 -280 0
-103 -102 0
-103 -101 0
-103 -131 0
-103 -130 0
-103 -129 0
-103 -128 0
-103 -127 0
-103 -126 0
-103 -156 0
-103 -155 0
-103 -154 0
-103 -153 0
-103 -181 0
-103 -180 0
-103 -206 0
-103 -205 0
-103 -231 0
-103 -230 0
-103 -229 0
-103 -228 0
-103 -256 0
-103 -255 0
-103 -281 0
-103 -280 0
-102 -101 0
-102 -131 0
-102 -130 0
-102 -129 0
-102 -128 0
-102 -127 0
-102 -126 0
-102 -156 0
-102 -155 0
-102 -154 0
-102 -153 0
-102 -181 0
-102 -180 0
-102 -206 0
-102 -205 0
-102 -231 0
-102 -230 0
-102 -229 0
-102 -228 0
-102 -256 0
-102 -255 0
-102 -281 0
-102 -280 0
-101 -131 0
-101 -130 0
-101 -129 0
-101 -128 0
-101 -127 0
-101 -126 0
-101 -156 0
-101 -155 0
-101 -154 0
-101 -153 0
-101 -181 0
-101 -180 0
-101 -206 0
-101 -205 0
-101 -231 0
-101 -230 0
-101 -229 0
-101 -228 0
-101 -256 0
-101 -255 0
-101 -281 0
-101 -280 0
-131 -130 0
-131 -129 0
-131 -128 0
-131 -127 0
-131 -126 0
-131 -156 0
-131 -155 0
-131 -154 0
-131 -153 0
-131 -181 0
-131 -180 0
-131 -206 0
-131 -205 0
-131 -231 0
-131 -230 0
-131 -229 0
-131 -228 0
-131 -256 0
-131 -255 0
-131 -281 0
-131 -280 0
-130 -129 0
-130 -128 0
-130 -127 0
-130 -126 0
-130 -156 0
-130 -155 0
-130 -154 0
-130 -153 0
-130 -181 0
-130 -180 0
-130 -206 0
-130 -205 0
-130 -231 0
-130 -230 0
-130 -229 0
-130 -228 0
-130 -256 0
-130 -255 0
-130 -281 0
-130 -280 0
-129 -128 0
-129 -127 0
-129 -126 0
-129 -156 0
-129 -155 0
-129 -154 0
-129 -153 0
-129 -181 0
-129 -180 0
-129 -206 0
-129 -205 0
-129 -231 0
-129 -230 0
-129 -229 0
-129 -228 0
-129 -256 0
-129 -255 0
-129 -281 0
-129 -280 0
-128 -127 0
-128 -126 0
-128 -156 0
-128 -155 0
-128 -154 0
-128 -153 0
-128 -181 0
-128 -180 0
-128 -206 0
-128 -205 0
-128 -231 0
-128 -230 0
-128 -229 0
-128 -228 0
-128 -256 0
-128 -255 0
-128 -281 0
-128 -280 0
-127 -126 0
-127 -156 0
-127 -155 0
-127 -154 0
-127 -153 0
-127 -181 0
-127 -180 0
-127 -206 0
-127 -205 0
-127 -231 0
-127 -230 0
-127 -229 0
-127 -228 0
-127 -256 0
-127 -255 0
-127 -281 0
-127 -280 0
-126 -156 0
-126 -155 0
-126 -154 0
-126 -153 0
-126 -181 0
-126 -180 0
-126 -206 0
-126 -205 0
-126 -231 0
-126 -230 0
-126 -229 0
-126 -228 0
-126 -256 0
-126 -255 0
-126 -281 0
-126 -280 0
-156 -155 0
-156 -154 0
-156 -153 0
-156 -181 0
-156 -180 0
-156 -206 0
-156 -205 0
-156 -231 0
-156 -230 0
-156 -229 0
-156 -228 0
-156 -256 0
-156 -255 0
-156 -281 0
-156 -280 0
-155 -154 0
-155 -153 0
-155 -181 0
-155 -180 0
-155 -206 0
-155 -205 0
-155 -231 0
-155 -230 0
-155 -229 0
-155 -228 0
-155 -256 0
-155 -255 0
-155 -281 0
-155 -280 0
-154 -153 0
-154 -181 0
-154 -180 0
-154 -206 0
-154 -205 0
-154 -231 0
-154 -230 0
-154 -229 0
-154 -228 0
-154 -256 0
-154 -255 0
-154 -281 0
-154 -280 0
-153 -181 0
-153 -180 0
-153 -206 0
-153 -205 0
-153 -231 0
-153 -230 0
-153 -229 0
-153 -228 0
-153 -256 0
-153 -255 0
-153 -281 0
-153 -280 0
-181 -180 0
-181 -206 0
-181 -205 0
-181 -231 0
-181 -230 0
-181 -229 0
-181 -228 0
-181 -256 0
-181 -255 0
-181 -281 0
-181 -280 0
-180 -206 0
-180 -205 0
-180 -231 0
-180 -230 0
-180 -229 0
-180 -228 0
-180 -256 0
-180 -255 0
-180 -281 0
-180 -280 0
-206 -205 0
-206 -231 0
-206 -230 0
-206 -229 0
-206 -228 0
-206 -256 0
-206 -255 0
-206 -281 0
-206 -280 0
-205 -231 0
-205 -230 0
-205 -229 0
-205 -228 0
-205 -256 0
-205 -255 0
-205 -281 0
-205 -280 0
-231 -230 0
-231 -229 0
-231 -228 0
-231 -256 0
-231 -255 0
-231 -281 0
-231 -280 0
-230 -229 0
-230 -228 0
-230 -256 0
-230 -255 0
-230 -281 0
-230 -280 0
-229 -228 0
-229 -256 0
-229 -255 0
-229 -281 0
-229 -280 0
-228 -256 0
-228 -255 0
-228 -281 0
-228 -280 0
-256 -255 0
-256 -281 0
-256 -280 0
-255 -281 0
-255 -280 0
-281 -280 0
-7 -6 0
-7 -5 0
-7 -4 0
-7 -3 0
-7 -2 0
-7 -32 0
-7 -31 0
-7 -30 0
-7 -29 0
-7 -28 0
-7 -27 0
-7 -57 0
-7 -56 0
-7 -82 0
-7 -81 0
-7 -80 0
-7 -79 0
-7 -107 0
-7 -106 0
-7 -105 0
-7 -104 0
-7 -103 0
-7 -102 0
-7 -132 0
-7 -131 0
-7 -130 0
-7 -129 0
-7 -128 0
-7 -127 0
-7 -157 0
-7 -156 0
-7 -155 0
-7 -154 0
-7 -182 0
-7 -181 0
-7 -207 0
-7 -206 0
-7 -232 0
-7 -231 0
-7 -230 0
-7 -229 0
-7 -257 0
-7 -256 0
-7 -282 0
-7 -281 0
-6 -5 0
-6 -4 0
-6 -3 0
-6 -2 0
-6 -32 0
-6 -31 0
-6 -30 0
-6 -29 0
-6 -28 0
-6 -27 0
-6 -57 0
-6 -56 0
-6 -82 0
-6 -81 0
-6 -80 0
-6 -79 0
-6 -107 0
-6 -106 0
-6 -105 0
-6 -104 0
-6 -103 0
-6 -102 0
-6 -132 0
-6 -131 0
-6 -130 0
-6 -129 0
-6 -128 0
-6 -127 0
-6 -157 0
-6 -156 0
-6 -155 0
-6 -154 0
-6 -182 0
-6 -181 0
-6 -207 0
-6 -206 0
-6 -232 0
-6 -231 0
-6 -230 0
-6 -229 0
-6 -257 0
-6 -256 0
-6 -282 0
-6 -281 0
-5 -4 0
-5 -3 0
-5 -2 0
-5 -32 0
-5 -31 0
-5 -30 0
-5 -29 0
-5 -28 0
-5 -27 0
-5 -57 0
-5 -56 0
-5 -82 0
-5 -81 0
-5 -80 0
-5 -79 0
-5 -107 0
-5 -106 0
-5 -105 0
-5 -104 0
-5 -103 0
-5 -102 0
-5 -132 0
-5 -131 0
-5 -130 0
-5 -129 0
-5 -128 0
-5 -127 0
-5 -157 0
-5 -156 0
-5 -155 0
-5 -154 0
-5 -182 0
-5 -181 0
-5 -207 0
-5 -206 0
-5 -232 0
-5 -231 0
-5 -230 0
-5 -229 0
-5 -257 0
-5 -256 0
-5 -282 0
-5 -281 0
-4 -3 0
-4 -2 0
-4 -32 0
-4 -31 0
-4 -30 0
-4 -29 0
-4 -28 0
-4 -27 0
-4 -57 0
-4 -56 0
-4 -82 0
-4 -81 0
-4 -80 0
-4 -79 0
-4 -107 0
-4 -106 0
-4 -105 0
-4 -104 0
-4 -103 0
-4 -102 0
-4 -132 0
-4 -131 0
-4 -130 0
-4 -129 0
-4 -128 0
-4 -127 0
-4 -157 0
-4 -156 0
-4 -155 0
-4 -154 0
-4 -182 0
-4 -181 0
-4 -207 0
-4 -206 0
-4 -232 0
-4 -231 0
-4 -230 0
-4 -229 0
-4 -257 0
-4 -256 0
-4 -282 0
-4 -281 0
-3 -2 0
-3 -32 0
-3 -31 0
-3 -30 0
-3 -29 0
-3 -28 0
-3 -27 0
-3 -57 0
-3 -56 0
-3 -82 0
-3 -81 0
-3 -80 0
-3 -79 0
-3 -107 0
-3 -106 0
-3 -105 0
-3 -104 0
-3 -103 0
-3 -102 0
-3 -132 0
-3 -131 0
-3 -130 0
-3 -129 0
-3 -128 0
-3 -127 0
-3 -157 0
-3 -156 0
-3 -155 0
-3 -154 0
-3 -182 0
-3 -181 0
-3 -207 0
-3 -206 0
-3 -232 0
-3 -231 0
-3 -230 0
-3 -229 0
-3 -257 0
-3 -256 0
-3 -282 0
-3 -281 0
-2 -32 0
-2 -31 0
-2 -30 0
-2 -29 0
-2 -28 0
-2 -27 0
-2 -57 0
-2 -56 0
-2 -82 0
-2 -81 0
-2 -80 0
-2 -79 0
-2 -107 0
-2 -106 0
-2 -105 0
-2 -104 0
-2 -103 0
-2 -102 0
-2 -132 0
-2 -131 0
-2 -130 0
-2 -129 0
-2 -128 0
-2 -127 0
-2 -157 0
-2 -156 0
-2 -155 0
-2 -154 0
-2 -182 0
-2 -181 0
-2 -207 0
-2 -206 0
-2 -232 0
-2 -231 0
-2 -230 0
-2 -229 0
-2 -257 0
-2 -256 0
-2 -282 0
-2 -281 0
-32 -31 0
-32 -30 0
-32 -29 0
-32 -28 0
-32 -27 0
-32 -57 0
-32 -56 0
-32 -82 0
-32 -81 0
-32 -80 0
-32 -79 0
-32 -107 0
-32 -106 0
-32 -105 0
-32 -104 0
-32 -103 0
-32 -102 0
-32 -132 0
-32 -131 0
-32 -130 0
-32 -129 0
-32 -128 0
-32 -127 0
-32 -157 0
-32 -156 0
-32 -155 0
-32 -154 0
-32 -182 0
-32 -181 0
-32 -207 0
-32 -206 0
-32 -232 0
-32 -231 0
-32 -230 0
-32 -229 0
-32 -257 0
-32 -256 0
-32 -282 0
-32 -281 0
-31 -30 0
-31 -29 0
-31 -28 0
-31 -27 0
-31 -57 0
-31 -56 0
-31 -82 0
-31 -81 0
-31 -80 0
-31 -79 0
-31 -107 0
-31 -106 0
-31 -105 0
-31 -104 0
-31 -103 0
-31 -102 0
-31 -132 0
-31 -131 0
-31 -130 0
-31 -129 0
-31 -128 0
-31 -127 0
-31 -157 0
-31 -156 0
-31 -155 0
-31 -154 0
-31 -182 0
-31 -181 0
-31 -207 0
-31 -206 0
-31 -232 0
-31 -231 0
-31 -230 0
-31 -229 0
-31 -257 0
-31 -256 0
-31 -282 0
-31 -281 0
-30 -29 0
-30 -28 0
-30 -27 0
-30 -57 0
-30 -56 0
-30 -82 0
-30 -81 0
-30 -80 0
-30 -79 0
-30 -107 0
-30 -106 0
-30 -105 0
-30 -104 0
-30 -103 0
-30 -102 0
-30 -132 0
-30 -131 0
-30 -130 0
-30 -129 0
-30 -128 0
-30 -127 0
-30 -157 0
-30 -156 0
-30 -155 0
-30 -154 0
-30 -182 0
-30 -181 0
-30 -207 0
-30 -206 0
-30 -232 0
-30 -231 0
-30 -230 0
-30 -229 0
-30 -257 0
-30 -256 0
-30 -282 0
-30 -281 0
-29 -28 0
-29 -27 0
-29 -57 0
-29 -56 0
-29 -82 0
-29 -81 0
-29 -80 0
-29 -79 0
-29 -107 0
-29 -106 0
-29 -105 0
-29 -104 0
-29 -103 0
-29 -102 0
-29 -132 0
-29 -131 0
-29 -130 0
-29 -129 0
-29 -128 0
-29 -127 0
-29 -157 0
-29 -156 0
-29 -155 0
-29 -154 0
-29 -182 0
-29 -181 0
-29 -207 0
-29 -206 0
-29 -232 0
-29 -231 0
-29 -230 0
-29 -229 0
-29 -257 0
-29 -256 0
-29 -282 0
-29 -281 0
-28 -27 0
-28 -57 0
-28 -56 0
-28 -82 0
-28 -81 0
-28 -80 0
-28 -79 0
-28 -107 0
-28 -106 0
-28 -105 0
-28 -104 0
-28 -103 0
-28 -102 0
-28 -132 0
-28 -131 0
-28 -130 0
-28 -129 0
-28 -128 0
-28 -127 0
-28 -157 0
-28 -156 0
-28 -155 0
-28 -154 0
-28 -182 0
-28 -181 0
-28 -207 0
-28 -206 0
-28 -232 0
-28 -231 0
-28 -230 0
-28 -229 0
-28 -257 0
-28 -256 0
-28 -282 0
-28 -281 0
-27 -57 0
-27 -56 0
-27 -82 0
-27 -81 0
-27 -80 0
-27 -79 0
-27 -107 0
-27 -106 0
-27 -105 0
-27 -104 0
-27 -103 0
-27 -102 0
-27 -132 0
-27 -131 0
-27 -130 0
-27 -129 0
-27 -128 0
-27 -127 0
-27 -157 0
-27 -156 0
-27 -155 0
-27 -154 0
-27 -182 0
-27 -181 0
-27 -207 0
-27 -206 0
-27 -232 0
-27 -231 0
-27 -230 0
-27 -229 0
-27 -257 0
-27 -256 0
-27 -282 0
-27 -281 0
-57 -56 0
-57 -82 0
-57 -81 0
-57 -80 0
-57 -79 0
-57 -107 0
-57 -106 0
-57 -105 0
-57 -104 0
-57 -103 0
-57 -102 0
-57 -132 0
-57 -131 0
-57 -130 0
-57 -129 0
-57 -128 0
-57 -127 0
-57 -157 0
-57 -156 0
-57 -155 0
-57 -154 0
-57 -182 0
-57 -181 0
-57 -207 0
-57 -206 0
-57 -232 0
-57 -231 0
-57 -230 0
-57 -229 0
-57 -257 0
-57 -256 0
-57 -282 0
-57 -281 0
-56 -82 0
-56 -81 0
-56 -80 0
-56 -79 0
-56 -107 0
-56 -106 0
-56 -105 0
-56 -104 0
-56 -103 0
-56 -102 0
-56 -132 0
-56 -131 0
-56 -130 0
-56 -129 0
-56 -128 0
-56 -127 0
-56 -157 0
-56 -156 0
-56 -155 0
-56 -154 0
-56 -182 0
-56 -181 0
-56 -207 0
-56 -206 0
-56 -232 0
-56 -231 0
-56 -230 0
-56 -229 0
-56 -257 0
-56 -256 0
-56 -282 0
-56 -281 0
-82 -81 0
-82 -80 0
-82 -79 0
-82 -107 0
-82 -106 0
-82 -105 0
-82 -104 0
-82 -103 0
-82 -102 0
-82 -132 0
-82 -131 0
-82 -130 0
-82 -129 0
-82 -128 0
-82 -127 0
-82 -157 0
-82 -156 0
-82 -155 0
-82 -154 0
-82 -182 0
-82 -181 0
-82 -207 0
-82 -206 0
-82 -232 0
-82 -231 0
-82 -230 0
-82 -229 0
-82 -257 0
-82 -256 0
-82 -282 0
-82 -281 0
-81 -80 0
-81 -79 0
-81 -107 0
-81 -106 0
-81 -105 0
-81 -104 0
-81 -103 0
-81 -102 0
-81 -132 0
-81 -131 0
-81 -130 0
-81 -129 0
-81 -128 0
-81 -127 0
-81 -157 0
-81 -156 0
-81 -155 0
-81 -154 0
-81 -182 0
-81 -181 0
-81 -207 0
-81 -206 0
-81 -232 0
-81 -231 0
-81 -230 0
-81 -229 0
-81 -257 0
-81 -256 0
-81 -282 0
-81 -281 0
-80 -79 0
-80 -107 0
-80 -106 0
-80 -105 0
-80 -104 0
-80 -103 0
-80 -102 0
-80 -132 0
-80 -131 0
-80 -130 0
-80 -129 0
-80 -128 0
-80 -127 0
-80 -157 0
-80 -156 0
-80 -155 0
-80 -154 0
-80 -182 0
-80 -181 0
-80 -207 0
-80 -206 0
-80 -232 0
-80 -231 0
-80 -230 0
-80 -229 0
-80 -257 0
-80 -256 0
-80 -282 0
-80 -281 0
-79 -107 0
-79 -106 0
-79 -105 0
-79 -104 0
-79 -103 0
-79 -102 0
-79 -132 0
-79 -131 0
-79 -130 0
-79 -129 0
-79 -128 0
-79 -127 0
-79 -157 0
-79 -156 0
-79 -155 0
-79 -154 0
-79 -182 0
-79 -181 0
-79 -207 0
-79 -206 0
-79 -232 0
-79 -231 0
-79 -230 0
-79 -229 0
-79 -257 0
-79 -256 0
-79 -282 0
-79 -281 0
-107 -106 0
-107 -105 0
-107 -104 0
-107 -103 0
-107 -102 0
-107 -132 0
-107 -131 0
-107 -130 0
-107 -129 0
-107 -128 0
-107 -127 0
-107 -157 0
-107 -156 0
-107 -155 0
-107 -154 0
-107 -182 0
-107 -181 0
-107 -207 0
-107 -206 0
-107 -232 0
-107 -231 0
-107 -230 0
-107 -229 0
-107 -257 0
-107 -256 0
-107 -282 0
-107 -281 0
-106 -105 0
-106 -104 0
-106 -103 0
-106 -102 0
-106 -132 0
-106 -131 0
-106 -130 0
-106 -129 0
-106 -128 0
-106 -127 0
-106 -157 0
-106 -156 0
-106 -155 0
-106 -154 0
-106 -182 0
-106 -181 0
-106 -207 0
-106 -206 0
-106 -232 0
-106 -231 0
-106 -230 0
-106 -229 0
-106 -257 0
-106 -256 0
-106 -282 0
-106 -281 0
-105 -104 0
-105 -103 0
-105 -102 0
-105 -132 0
-105 -131 0
-105 -130 0
-105 -129 0
-105 -128 0
-105 -127 0
-105 -157 0
-105 -156 0
-105 -155 0
-105 -154 0
-105 -182 0
-105 -181 0
-105 -207 0
-105 -206 0
-105 -232 0
-105 -231 0
-105 -230 0
-105 -229 0
-105 -257 0
-105 -256 0
-105 -282 0
-105 -281 0
-104 -103 0
-104 -102 0
-104 -132 0
-104 -131 0
-104 -130 0
-104 -129 0
-104 -128 0
-104 -127 0
-104 -157 0
-104 -156 0
-104 -155 0
-104 -154 0
-104 -182 0
-104 -181 0
-104 -207 0
-104 -206 0
-104 -232 0
-104 -231 0
-104 -230 0
-104 -229 0
-104 -257 0
-104 -256 0
-104 -282 0
-104 -281 0
-103 -102 0
-103 -132 0
-103 -131 0
-103 -130 0
-103 -129 0
-103 -128 0
-103 -127 0
-103 -157 0
-103 -156 0
-103 -155 0
-103 -154 0
-103 -182 0
-103 -181 0
-103 -207 0
-103 -206 0
-103 -232 0
-103 -231 0
-103 -230 0
-103 -229 0
-103 -257 0
-103 -256 0
-103 -282 0
-103 -281 0
-102 -132 0
-102 -131 0
-102 -130 0
-102 -129 0
-102 -128 0
-102 -127 0
-102 -157 0
-102 -156 0
-102 -155 0
-102 -154 0
-102 -182 0
-102 -181 0
-102 -207 0
-102 -206 0
-102 -232 0
-102 -231 0
-102 -230 0
-102 -229 0
-102 -257 0
-102 -256 0
-102 -282 0
-102 -281 0
-132 -131 0
-132 -130 0
-132 -129 0
-132 -128 0
-132 -127 0
-132 -157 0
-132 -156 0
-132 -155 0
-132 -154 0
-132 -182 0
-132 -181 0
-132 -207 0
-132 -206 0
-132 -232 0
-132 -231 0
-132 -230 0
-132 -229 0
-132 -257 0
-132 -256 0
-132 -282 0
-132 -281 0
-131 -130 0
-131 -129 0
-131 -128 0
-131 -127 0
-131 -157 0
-131 -156 0
-131 -155 0
-131 -154 0
-131 -182 0
-131 -181 0
-131 -207 0
-131 -206 0
-131 -232 0
-131 -231 0
-131 -230 0
-131 -229 0
-131 -257 0
-131 -256 0
-131 -282 0
-131 -281 0
-130 -129 0
-130 -128 0
-130 -127 0
-130 -157 0
-130 -156 0
-130 -155 0
-130 -154 0
-130 -182 0
-130 -181 0
-130 -207 0
-130 -206 0
-130 -232 0
-130 -231 0
-130 -230 0
-130 -229 0
-130 -257 0
-130 -256 0
-130 -282 0
-130 -281 0
-129 -128 0
-129 -127 0
-129 -157 0
-129 -156 0
-129 -155 0
-129 -154 0
-129 -182 0
-129 -181 0
-129 -207 0
-129 -206 0
-129 -232 0
-129 -231 0
-129 -230 0
-129 -229 0
-129 -257 0
-129 -256 0
-129 -282 0
-129 -281 0
-128 -127 0
-128 -157 0
-128 -156 0
-128 -155 0
-128 -154 0
-128 -182 0
-128 -181 0
-128 -207 0
-128 -206 0
-128 -232 0
-128 -231 0
-128 -230 0
-128 -229 0
-128 -257 0
-128 -256 0
-128 -282 0
-128 -281 0
-127 -157 0
-127 -156 0
-127 -155 0
-127 -154 0
-127 -182 0
-127 -181 0
-127 -207 0
-127 -206 0
-127 -232 0
-127 -231 0
-127 -230 0
-127 -229 0
-127 -257 0
-127 -256 0
-127 -282 0
-127 -281 0
-157 -156 0
-157 -155 0
-157 -154 0
-157 -182 0
-157 -181 0
-157 -207 0
-157 -206 0
-157 -232 0
-157 -231 0
-157 -230 0
-157 -229 0
-157 -257 0
-157 -256 0
-157 -282 0
-157 -281 0
-156 -155 0
-156 -154 0
-156 -182 0
-156 -181 0
-156 -207 0
-156 -206 0
-156 -232 0
-156 -231 0
-156 -230 0
-156 -229 0
-156 -257 0
-156 -256 0
-156 -282 0
-156 -281 0
-155 -154 0
-155 -182 0
-155 -181 0
-155 -207 0
-155 -206 0
-155 -232 0
-155 -231 0
-155 -230 0
-155 -229 0
-155 -257 0
-155 -256 0
-155 -282 0
-155 -281 0
-154 -182 0
-154 -181 0
-154 -207 0
-154 -206 0
-154 -232 0
-154 -231 0
-154 -230 0
-154 -229 0
-154 -257 0
-154 -256 0
-154 -282 0
-154 -281 0
-182 -181 0
-182 -207 0
-182 -206 0
-182 -232 0
-182 -231 0
-182 -230 0
-182 -229 0
-182 -257 0
-182 -256 0
-182 -282 0
-182 -281 0
-181 -207 0
-181 -206 0
-181 -232 0
-181 -231 0
-181 -230 0
-181 -229 0
-181 -257 0
-181 -256 0
-181 -282 0
-181 -281 0
-207 -206 0
-207 -232 0
-207 -231 0
-207 -230 0
-207 -229 0
-207 -257 0
-207 -256 0
-207 -282 0
-207 -281 0
-206 -232 0
-206 -231 0
-206 -230 0
-206 -229 0
-206 -257 0
-206 -256 0
-206 -282 0
-206 -281 0
-232 -231 0
-232 -230 0
-232 -229 0
-232 -257 0
-232 -256 0
-232 -282 0
-232 -281 0
-231 -230 0
-231 -229 0
-231 -257 0
-231 -256 0
-231 -282 0
-231 -281 0
-230 -229 0
-230 -257 0
-230 -256 0
-230 -282 0
-230 -281 0
-229 -257 0
-229 -256 0
-229 -282 0
-229 -281 0
-257 -256 0
-257 -282 0
-257 -281 0
-256 -282 0
-256 -281 0
-282 -281 0
-8 -7 0
-8 -6 0
-8 -5 0
-8 -4 0
-8 -3 0
-8 -33 0
-8 -32 0
-8 -31 0
-8 -30 0
-8 -29 0
-8 -28 0
-8 -58 0
-8 -57 0
-8 -83 0
-8 -82 0
-8 -81 0
-8 -80 0
-8 -108 0
-8 -107 0
-8 -106 0
-8 -105 0
-8 -104 0
-8 -103 0
-8 -133 0
-8 -132 0
-8 -131 0
-8 -130 0
-8 -129 0
-8 -128 0
-8 -158 0
-8 -157 0
-8 -156 0
-8 -155 0
-8 -183 0
-8 -182 0
-8 -208 0
-8 -207 0
-8 -233 0
-8 -232 0
-8 -231 0
-8 -230 0
-8 -258 0
-8 -257 0
-8 -283 0
-8 -282 0
-7 -6 0
-7 -5 0
-7 -4 0
-7 -3 0
-7 -33 0
-7 -32 0
-7 -31 0
-7 -30 0
-7 -29 0
-7 -28 0
-7 -58 0
-7 -57 0
-7 -83 0
-7 -82 0
-7 -81 0
-7 -80 0
-7 -108 0
-7 -107 0
-7 -106 0
-7 -105 0
-7 -104 0
-7 -103 0
-7 -133 0
-7 -132 0
-7 -131 0
-7 -130 0
-7 -129 0
-7 -128 0
-7 -158 0
-7 -157 0
-7 -156 0
-7 -155 0
-7 -183 0
-7 -182 0
-7 -208 0
-7 -207 0
-7 -233 0
-7 -232 0
-7 -231 0
-7 -230 0
-7 -258 0
-7 -257 0
-7 -283 0
-7 -282 0
-6 -5 0
-6 -4 0
-6 -3 0
-6 -33 0
-6 -32 0
-6 -31 0
-6 -30 0
-6 -29 0
-6 -28 0
-6 -58 0
-6 -57 0
-6 -83 0
-6 -82 0
-6 -81 0
-6 -80 0
-6 -108 0
-6 -107 0
-6 -106 0
-6 -105 0
-6 -104 0
-6 -103 0
-6 -133 0
-6 -132 0
-6 -131 0
-6 -130 0
-6 -129 0
-6 -128 0
-6 -158 0
-6 -157 0
-6 -156 0
-6 -155 0
-6 -183 0
-6 -182 0
-6 -208 0
-6 -207 0
-6 -233 0
-6 -232 0
-6 -231 0
-6 -230 0
-6 -258 0
-6 -257 0
-6 -283 0
-6 -282 0
-5 -4 0
-5 -3 0
-5 -33 0
-5 -32 0
-5 -31 0
-5 -30 0
-5 -29 0
-5 -28 0
-5 -58 0
-5 -57 0
-5 -83 0
-5 -82 0
-5 -81 0
-5 -80 0
-5 -108 0
-5 -107 0
-5 -106 0
-5 -105 0
-5 -104 0
-5 -103 0
-5 -133 0
-5 -132 0
-5 -131 0
-5 -130 0
-5 -129 0
-5 -128 0
-5 -158 0
-5 -157 0
-5 -156 0
-5 -155 0
-5 -183 0
-5 -182 0
-5 -208 0
-5 -207 0
-5 -233 0
-5 -232 0
-5 -231 0
-5 -230 0
-5 -258 0
-5 -257 0
-5 -283 0
-5 -282 0
-4 -3 0
-4 -33 0
-4 -32 0
-4 -31 0
-4 -30 0
-4 -29 0
-4 -28 0
-4 -58 0
-4 -57 0
-4 -83 0
-4 -82 0
-4 -81 0
-4 -80 0
-4 -108 0
-4 -107 0
-4 -106 0
-4 -105 0
-4 -104 0
-4 -103 0
-4 -133 0
-4 -132 0
-4 -131 0
-4 -130 0
-4 -129 0
-4 -128 0
-4 -158 0
-4 -157 0
-4 -156 0
-4 -155 0
-4 -183 0
-4 -182 0
-4 -208 0
-4 -207 0
-4 -233 0
-4 -232 0
-4 -231 0
-4 -230 0
-4 -258 0
-4 -257 0
-4 -283 0
-4 -282 0
-3 -33 0
-3 -32 0
-3 -31 0
-3 -30 0
-3 -29 0
-3 -28 0
-3 -58 0
-3 -57 0
-3 -83 0
-3 -82 0
-3 -81 0
-3 -80 0
-3 -108 0
-3 -107 0
-3 -106 0
-3 -105 0
-3 -104 0
-3 -103 0
-3 -133 0
-3 -132 0
-3 -131 0
-3 -130 0
-3 -129 0
-3 -128 0
-3 -158 0
-3 -157 0
-3 -156 0
-3 -155 0
-3 -183 0
-3 -182 0
-3 -208 0
-3 -207 0
-3 -233 0
-3 -232 0
-3 -231 0
-3 -230 0
-3 -258 0
-3 -257 0
-3 -283 0
-3 -282 0
-33 -32 0
-33 -31 0
-33 -30 0
-33 -29 0
-33 -28 0
-33 -58 0
-33 -57 0
-33 -83 0
-33 -82 0
-33 -81 0
-33 -80 0
-33 -108 0
-33 -107 0
-33 -106 0
-33 -105 0
-33 -104 0
-33 -103 0
-33 -133 0
-33 -132 0
-33 -131 0
-33 -130 0
-33 -129 0
-33 -128 0
-33 -158 0
-33 -157 0
-33 -156 0
-33 -155 0
-33 -183 0
-33 -182 0
-33 -208 0
-33 -207 0
-33 -233 0
-33 -232 0
-33 -231 0
-33 -230 0
-33 -258 0
-33 -257 0
-33 -283 0
-33 -282 0
-32 -31 0
-32 -30 0
-32 -29 0
-32 -28 0
-32 -58 0
-32 -57 0
-32 -83 0
-32 -82 0
-32 -81 0
-32 -80 0
-32 -108 0
-32 -107 0
-32 -106 0
-32 -105 0
-32 -104 0
-32 -103 0
-32 -133 0
-32 -132 0
-32 -131 0
-32 -130 0
-32 -129 0
-32 -128 0
-32 -158 0
-32 -157 0
-32 -156 0
-32 -155 0
-32 -183 0
-32 -182 0
-32 -208 0
-32 -207 0
-32 -233 0
-32 -232 0
-32 -231 0
-32 -230 0
-32 -258 0
-32 -257 0
-32 -283 0
-32 -282 0
-31 -30 0
-31 -29 0
-31 -28 0
-31 -58 0
-31 -57 0
-31 -83 0
-31 -82 0
-31 -81 0
-31 -80 0
-31 -108 0
-31 -107 0
-31 -106 0
-31 -105 0
-31 -104 0
-31 -103 0
-31 -133 0
-31 -132 0
-31 -131 0
-31 -130 0
-31 -129 0
-31 -128 0
-31 -158 0
-31 -157 0
-31 -156 0
-31 -155 0
-31 -183 0
-31 -182 0
-31 -208 0
-31 -207 0
-31 -233 0
-31 -232 0
-31 -231 0
-31 -230 0
-31 -258 0
-31 -257 0
-31 -283 0
-31 -282 0
-30 -29 0
-30 -28 0
-30 -58 0
-30 -57 0
-30 -83 0
-30 -82 0
-30 -81 0
-30 -80 0
-30 -108 0
-30 -107 0
-30 -106 0
-30 -105 0
-30 -104 0
-30 -103 0
-30 -133 0
-30 -132 0
-30 -131 0
-30 -130 0
-30 -129 0
-30 -128 0
-30 -158 0
-30 -157 0
-30 -156 0
-30 -155 0
-30 -183 0
-30 -182 0
-30 -208 0
-30 -207 0
-30 -233 0
-30 -232 0
-30 -231 0
-30 -230 0
-30 -258 0
-30 -257 0
-30 -283 0
-30 -282 0
-29 -28 0
-29 -58 0
-29 -57 0
-29 -83 0
-29 -82 0
-29 -81 0
-29 -80 0
-29 -108 0
-29 -107 0
-29 -106 0
-29 -105 0
-29 -104 0
-29 -103 0
-29 -133 0
-29 -132 0
-29 -131 0
-29 -130 0
-29 -129 0
-29 -128 0
-29 -158 0
-29 -157 0
-29 -156 0
-29 -155 0
-29 -183 0
-29 -182 0
-29 -208 0
-29 -207 0
-29 -233 0
-29 -232 0
-29 -231 0
-29 -230 0
-29 -258 0
-29 -257 0
-29 -283 0
-29 -282 0
-28 -58 0
-28 -57 0
-28 -83 0
-28 -82 0
-28 -81 0
-28 -80 0
-28 -108 0
-28 -107 0
-28 -106 0
-28 -105 0
-28 -104 0
-28 -103 0
-28 -133 0
-28 -132 0
-28 -131 0
-28 -130 0
-28 -129 0
-28 -128 0
-28 -158 0
-28 -157 0
-28 -156 0
-28 -155 0
-28 -183 0
-28 -182 0
-28 -208 0
-28 -207 0
-28 -233 0
-28 -232 0
-28 -231 0
-28 -230 0
-28 -258 0
-28 -257 0
-28 -283 0
-28 -282 0
-58 -57 0
-58 -83 0
-58 -82 0
-58 -81 0
-58 -80 0
-58 -108 0
-58 -107 0
-58 -106 0
-58 -105 0
-58 -104 0
-58 -103 0
-58 -133 0
-58 -132 0
-58 -131 0
-58 -130 0
-58 -129 0
-58 -128 0
-58 -158 0
-58 -157 0
-58 -156 0
-58 -155 0
-58 -183 0
-58 -182 0
-58 -208 0
-58 -207 0
-58 -233 0
-58 -232 0
-58 -231 0
-58 -230 0
-58 -258 0
-58 -257 0
-58 -283 0
-58 -282 0
-57 -83 0
-57 -82 0
-57 -81 0
-57 -80 0
-57 -108 0
-57 -107 0
-57 -106 0
-57 -105 0
-57 -104 0
-57 -103 0
-57 -133 0
-57 -132 0
-57 -131 0
-57 -130 0
-57 -129 0
-57 -128 0
-57 -158 0
-57 -157 0
-57 -156 0
-57 -155 0
-57 -183 0
-57 -182 0
-57 -208 0
-57 -207 0
-57 -233 0
-57 -232 0
-57 -231 0
-57 -230 0
-57 -258 0
-57 -257 0
-57 -283 0
-57 -282 0
-83 -82 0
-83 -81 0
-83 -80 0
-83 -108 0
-83 -107 0
-83 -106 0
-83 -105 0
-83 -104 0
-83 -103 0
-83 -133 0
-83 -132 0
-83 -131 0
-83 -130 0
-83 -129 0
-83 -128 0
-83 -158 0
-83 -157 0
-83 -156 0
-83 -155 0
-83 -183 0
-83 -182 0
-83 -208 0
-83 -207 0
-83 -233 0
-83 -232 0
-83 -231 0
-83 -230 0
-83 -258 0
-83 -257 0
-83 -283 0
-83 -282 0
-82 -81 0
-82 -80 0
-82 -108 0
-82 -107 0
-82 -106 0
-82 -105 0
-82 -104 0
-82 -103 0
-82 -133 0
-82 -132 0
-82 -131 0
-82 -130 0
-82 -129 0
-82 -128 0
-82 -158 0
-82 -157 0
-82 -156 0
-82 -155 0
-82 -183 0
-82 -182 0
-82 -208 0
-82 -207 0
-82 -233 0
-82 -232 0
-82 -231 0
-82 -230 0
-82 -258 0
-82 -257 0
-82 -283 0
-82 -282 0
-81 -80 0
-81 -108 0
-81 -107 0
-81 -106 0
-81 -105 0
-81 -104 0
-81 -103 0
-81 -133 0
-81 -132 0
-81 -131 0
-81 -130 0
-81 -129 0
-81 -128 0
-81 -158 0
-81 -157 0
-81 -156 0
-81 -155 0
-81 -183 0
-81 -182 0
-81 -208 0
-81 -207 0
-81 -233 0
-81 -232 0
-81 -231 0
-81 -230 0
-81 -258 0
-81 -257 0
-81 -283 0
-81 -282 0
-80 -108 0
-80 -107 0
-80 -106 0
-80 -105 0
-80 -104 0
-80 -103 0
-80 -133 0
-80 -132 0
-80 -131 0
-80 -130 0
-80 -129 0
-80 -128 0
-80 -158 0
-80 -157 0
-80 -156 0
-80 -155 0
-80 -183 0
-80 -182 0
-80 -208 0
-80 -207 0
-80 -233 0
-80 -232 0
-80 -231 0
-80 -230 0
-80 -258 0
-80 -257 0
-80 -283 0
-80 -282 0
-108 -107 0
-108 -106 0
-108 -105 0
-108 -104 0
-108 -103 0
-108 -133 0
-108 -132 0
-108 -131 0
-108 -130 0
-108 -129 0
-108 -128 0
-108 -158 0
-108 -157 0
-108 -156 0
-108 -155 0
-108 -183 0
-108 -182 0
-108 -208 0
-108 -207 0
-108 -233 0
-108 -232 0
-108 -231 0
-108 -230 0
-108 -258 0
-108 -257 0
-108 -283 0
-108 -282 0
-107 -106 0
-107 -105 0
-107 -104 0
-107 -103 0
-107 -133 0
-107 -132 0
-107 -131 0
-107 -130 0
-107 -129 0
-107 -128 0
-107 -158 0
-107 -157 0
-107 -156 0
-107 -155 0
-107 -183 0
-107 -182 0
-107 -208 0
-107 -207 0
-107 -233 0
-107 -232 0
-107 -231 0
-107 -230 0
-107 -258 0
-107 -257 0
-107 -283 0
-107 -282 0
-106 -105 0
-106 -104 0
-106 -103 0
-106 -133 0
-106 -132 0
-106 -131 0
-106 -130 0
-106 -129 0
-106 -128 0
-106 -158 0
-106 -157 0
-106 -156 0
-106 -155 0
-106 -183 0
-106 -182 0
-106 -208 0
-106 -207 0
-106 -233 0
-106 -232 0
-106 -231 0
-106 -230 0
-106 -258 0
-106 -257 0
-106 -283 0
-106 -282 0
-105 -104 0
-105 -103 0
-105 -133 0
-105 -132 0
-105 -131 0
-105 -130 0
-105 -129 0
-105 -128 0
-105 -158 0
-105 -157 0
-105 -156 0
-105 -155 0
-105 -183 0
-105 -182 0
-105 -208 0
-105 -207 0
-105 -233 0
-105 -232 0
-105 -231 0
-105 -230 0
-105 -258 0
-105 -257 0
-105 -283 0
-105 -282 0
-104 -103 0
-104 -133 0
-104 -132 0
-104 -131 0
-104 -130 0
-104 -129 0
-104 -128 0
-104 -158 0
-104 -157 0
-104 -156 0
-104 -155 0
-104 -183 0
-104 -182 0
-104 -208 0
-104 -207 0
-104 -233 0
-104 -232 0
-104 -231 0
-104 -230 0
-104 -258 0
-104 -257 0
-104 -283 0
-104 -282 0
-103 -133 0
-103 -132 0
-103 -131 0
-103 -130 0
-103 -129 0
-103 -128 0
-103 -158 0
-103 -157 0
-103 -156 0
-103 -155 0
-103 -183 0
-103 -182 0
-103 -208 0
-103 -207 0
-103 -233 0
-103 -232 0
-103 -231 0
-103 -230 0
-103 -258 0
-103 -257 0
-103 -283 0
-103 -282 0
-133 -132 0
-133 -131 0
-133 -130 0
-133 -129 0
-133 -128 0
-133 -158 0
-133 -157 0
-133 -156 0
-133 -155 0
-133 -183 0
-133 -182 0
-133 -208 0
-133 -207 0
-133 -233 0
-133 -232 0
-133 -231 0
-133 -230 0
-133 -258 0
-133 -257 0
-133 -283 0
-133 -282 0
-132 -131 0
-132 -130 0
-132 -129 0
-132 -128 0
-132 -158 0
-132 -157 0
-132 -156 0
-132 -155 0
-132 -183 0
-132 -182 0
-132 -208 0
-132 -207 0
-132 -233 0
-132 -232 0
-132 -231 0
-132 -230 0
-132 -258 0
-132 -257 0
-132 -283 0
-132 -282 0
-131 -130 0
-131 -129 0
-131 -128 0
-131 -158 0
-131 -157 0
-131 -156 0
-131 -155 0
-131 -183 0
-131 -182 0
-131 -208 0
-131 -207 0
-131 -233 0
-131 -232 0
-131 -231 0
-131 -230 0
-131 -258 0
-131 -257 0
-131 -283 0
-131 -282 0
-130 -129 0
-130 -128 0
-130 -158 0
-130 -157 0
-130 -156 0
-130 -155 0
-130 -183 0
-130 -182 0
-130 -208 0
-130 -207 0
-130 -233 0
-130 -232 0
-130 -231 0
-130 -230 0
-130 -258 0
-130 -257 0
-130 -283 0
-130 -282 0
-129 -128 0
-129 -158 0
-129 -157 0
-129 -156 0
-129 -155 0
-129 -183 0
-129 -182 0
-129 -208 0
-129 -207 0
-129 -233 0
-129 -232 0
-129 -231 0
-129 -230 0
-129 -258 0
-129 -257 0
-129 -283 0
-129 -282 0
-128 -158 0
-128 -157 0
-128 -156 0
-128 -155 0
-128 -183 0
-128 -182 0
-128 -208 0
-128 -207 0
-128 -233 0
-128 -232 0
-128 -231 0
-128 -230 0
-128 -258 0
-128 -257 0
-128 -283 0
-128 -282 0
-158 -157 0
-158 -156 0
-158 -155 0
-158 -183 0
-158 -182 0
-158 -208 0
-158 -207 0
-158 -233 0
-158 -232 0
-158 -231 0
-158 -230 0
-158 -258 0
-158 -257 0
-158 -283 0
-158 -282 0
-157 -156 0
-157 -155 0
-157 -183 0
-157 -182 0
-157 -208 0
-157 -207 0
-157 -233 0
-157 -232 0
-157 -231 0
-157 -230 0
-157 -258 0
-157 -257 0
-157 -283 0
-157 -282 0
-156 -155 0
-156 -183 0
-156 -182 0
-156 -208 0
-156 -207 0
-156 -233 0
-156 -232 0
-156 -231 0
-156 -230 0
-156 -258 0
-156 -257 0
-156 -283 0
-156 -282 0
-155 -183 0
-155 -182 0
-155 -208 0
-155 -207 0
-155 -233 0
-155 -232 0
-155 -231 0
-155 -230 0
-155 -258 0
-155 -257 0
-155 -283 0
-155 -282 0
-183 -182 0
-183 -208 0
-183 -207 0
-183 -233 0
-183 -232 0
-183 -231 0
-183 -230 0
-183 -258 0
-183 -257 0
-183 -283 0
-183 -282 0
-182 -208 0
-182 -207 0
-182 -233 0
-182 -232 0
-182 -231 0
-182 -230 0
-182 -258 0
-182 -257 0
-182 -283 0
-182 -282 0
-208 -207 0
-208 -233 0
-208 -232 0
-208 -231 0
-208 -230 0
-208 -258 0
-208 -257 0
-208 -283 0
-208 -282 0
-207 -233 0
-207 -232 0
-207 -231 0
-207 -230 0
-207 -258 0
-207 -257 0
-207 -283 0
-207 -282 0
-233 -232 0
-233 -231 0
-233 -230 0
-233 -258 0
-233 -257 0
-233 -283 0
-233 -282 0
-232 -231 0
-232 -230 0
-232 -258 0
-232 -257 0
-232 -283 0
-232 -282 0
-231 -230 0
-231 -258 0
-231 -257 0
-231 -283 0
-231 -282 0
-230 -258 0
-230 -257 0
-230 -283 0
-230 -282 0
-258 -257 0
-258 -283 0
-258 -282 0
-257 -283 0
-257 -282 0
-283 -282 0
-9 -8 0
-9 -7 0
-9 -6 0
-9 -5 0
-9 -4 0
-9 -34 0
-9 -33 0
-9 -32 0
-9 -31 0
-9 -30 0
-9 -29 0
-9 -59 0
-9 -58 0
-9 -84 0
-9 -83 0
-9 -82 0
-9 -81 0
-9 -109 0
-9 -108 0
-9 -107 0
-9 -106 0
-9 -105 0
-9 -104 0
-9 -134 0
-9 -133 0
-9 -132 0
-9 -131 0
-9 -130 0
-9 -129 0
-9 -159 0
-9 -158 0
-9 -157 0
-9 -156 0
-9 -184 0
-9 -183 0
-9 -209 0
-9 -208 0
-9 -234 0
-9 -233 0
-9 -232 0
-9 -231 0
-9 -259 0
-9 -258 0
-9 -284 0
-9 -283 0
-8 -7 0
-8 -6 0
-8 -5 0
-8 -4 0
-8 -34 0
-8 -33 0
-8 -32 0
-8 -31 0
-8 -30 0
-8 -29 0
-8 -59 0
-8 -58 0
-8 -84 0
-8 -83 0
-8 -82 0
-8 -81 0
-8 -109 0
-8 -108 0
-8 -107 0
-8 -106 0
-8 -105 0
-8 -104 0
-8 -134 0
-8 -133 0
-8 -132 0
-8 -131 0
-8 -130 0
-8 -129 0
-8 -159 0
-8 -158 0
-8 -157 0
-8 -156 0
-8 -184 0
-8 -183 0
-8 -209 0
-8 -208 0
-8 -234 0
-8 -233 0
-8 -232 0
-8 -231 0
-8 -259 0
-8 -258 0
-8 -284 0
-8 -283 0
-7 -6 0
-7 -5 0
-7 -4 0
-7 -34 0
-7 -33 0
-7 -32 0
-7 -31 0
-7 -30 0
-7 -29 0
-7 -59 0
-7 -58 0
-7 -84 0
-7 -83 0
-7 -82 0
-7 -81 0
-7 -109 0
-7 -108 0
-7 -107 0
-7 -106 0
-7 -105 0
-7 -104 0
-7 -134 0
-7 -133 0
-7 -132 0
-7 -131 0
-7 -130 0
-7 -129 0
-7 -159 0
-7 -158 0
-7 -157 0
-7 -156 0
-7 -184 0
-7 -183 0
-7 -209 0
-7 -208 0
-7 -234 0
-7 -233 0
-7 -232 0
-7 -231 0
-7 -259 0
-7 -258 0
-7 -284 0
-7 -283 0
-6 -5 0
-6 -4 0
-6 -34 0
-6 -33 0
-6 -32 0
-6 -31 0
-6 -30 0
-6 -29 0
-6 -59 0
-6 -58 0
-6 -84 0
-6 -83 0
-6 -82 0
-6 -81 0
-6 -109 0
-6 -108 0
-6 -107 0
-6 -106 0
-6 -105 0
-6 -104 0
-6 -134 0
-6 -133 0
-6 -132 0
-6 -131 0
-6 -130 0
-6 -129 0
-6 -159 0
-6 -158 0
-6 -157 0
-6 -156 0
-6 -184 0
-6 -183 0
-6 -209 0
-6 -208 0
-6 -234 0
-6 -233 0
-6 -232 0
-6 -231 0
-6 -259 0
-6 -258 0
-6 -284 0
-6 -283 0
-5 -4 0
-5 -34 0
-5 -33 0
-5 -32 0
-5 -31 0
-5 -30 0
-5 -29 0
-5 -59 0
-5 -58 0
-5 -84 0
-5 -83 0
-5 -82 0
-5 -81 0
-5 -109 0
-5 -108 0
-5 -107 0
-5 -106 0
-5 -105 0
-5 -104 0
-5 -134 0
-5 -133 0
-5 -132 0
-5 -131 0
-5 -130 0
-5 -129 0
-5 -159 0
-5 -158 0
-5 -157 0
-5 -156 0
-5 -184 0
-5 -183 0
-5 -209 0
-5 -208 0
-5 -234 0
-5 -233 0
-5 -232 0
-5 -231 0
-5 -259 0
-5 -258 0
-5 -284 0
-5 -283 0
-4 -34 0
-4 -33 0
-4 -32 0
-4 -31 0
-4 -30 0
-4 -29 0
-4 -59 0
-4 -58 0
-4 -84 0
-4 -83 0
-4 -82 0
-4 -81 0
-4 -109 0
-4 -108 0
-4 -107 0
-4 -106 0
-4 -105 0
-4 -104 0
-4 -134 0
-4 -133 0
-4 -132 0
-4 -131 0
-4 -130 0
-4 -129 0
-4 -159 0
-4 -158 0
-4 -157 0
-4 -156 0
-4 -184 0
-4 -183 0
-4 -209 0
-4 -208 0
-4 -234 0
-4 -233 0
-4 -232 0
-4 -231 0
-4 -259 0
-4 -258 0
-4 -284 0
-4 -283 0
-34 -33 0
-34 -32 0
-34 -31 0
-34 -30 0
-34 -29 0
-34 -59 0
-34 -58 0
-34 -84 0
-34 -83 0
-34 -82 0
-34 -81 0
-34 -109 0
-34 -108 0
-34 -107 0
-34 -106 0
-34 -105 0
-34 -104 0
-34 -134 0
-34 -133 0
-34 -132 0
-34 -131 0
-34 -130 0
-34 -129 0
-34 -159 0
-34 -158 0
-34 -157 0
-34 -156 0
-34 -184 0
-34 -183 0
-34 -209 0
-34 -208 0
-34 -234 0
-34 -233 0
-34 -232 0
-34 -231 0
-34 -259 0
-34 -258 0
-34 -284 0
-34 -283 0
-33 -32 0
-33 -31 0
-33 -30 0
-33 -29 0
-33 -59 0
-33 -58 0
-33 -84 0
-33 -83 0
-33 -82 0
-33 -81 0
-33 -109 0
-33 -108 0
-33 -107 0
-33 -106 0
-33 -105 0
-33 -104 0
-33 -134 0
-33 -133 0
-33 -132 0
-33 -131 0
-33 -130 0
-33 -129 0
-33 -159 0
-33 -158 0
-33 -157 0
-33 -156 0
-33 -184 0
-33 -183 0
-33 -209 0
-33 -208 0
-33 -234 0
-33 -233 0
-33 -232 0
-33 -231 0
-33 -259 0
-33 -258 0
-33 -284 0
-33 -283 0
-32 -31 0
-32 -30 0
-32 -29 0
-32 -59 0
-32 -58 0
-32 -84 0
-32 -83 0
-32 -82 0
-32 -81 0
-32 -109 0
-32 -108 0
-32 -107 0
-32 -106 0
-32 -105 0
-32 -104 0
-32 -134 0
-32 -133 0
-32 -132 0
-32 -131 0
-32 -130 0
-32 -129 0
-32 -159 0
-32 -158 0
-32 -157 0
-32 -156 0
-32 -184 0
-32 -183 0
-32 -209 0
-32 -208 0
-32 -234 0
-32 -233 0
-32 -232 0
-32 -231 0
-32 -259 0
-32 -258 0
-32 -284 0
-32 -283 0
-31 -30 0
-31 -29 0
-31 -59 0
-31 -58 0
-31 -84 0
-31 -83 0
-31 -82 0
-31 -81 0
-31 -109 0
-31 -108 0
-31 -107 0
-31 -106 0
-31 -105 0
-31 -104 0
-31 -134 0
-31 -133 0
-31 -132 0
-31 -131 0
-31 -130 0
-31 -129 0
-31 -159 0
-31 -158 0
-31 -157 0
-31 -156 0
-31 -184 0
-31 -183 0
-31 -209 0
-31 -208 0
-31 -234 0
-31 -233 0
-31 -232 0
-31 -231 0
-31 -259 0
-31 -258 0
-31 -284 0
-31 -283 0
-30 -29 0
-30 -59 0
-30 -58 0
-30 -84 0
-30 -83 0
-30 -82 0
-30 -81 0
-30 -109 0
-30 -108 0
-30 -107 0
-30 -106 0
-30 -105 0
-30 -104 0
-30 -134 0
-30 -133 0
-30 -132 0
-30 -131 0
-30 -130 0
-30 -129 0
-30 -159 0
-30 -158 0
-30 -157 0
-30 -156 0
-30 -184 0
-30 -183 0
-30 -209 0
-30 -208 0
-30 -234 0
-30 -233 0
-30 -232 0
-30 -231 0
-30 -259 0
-30 -258 0
-30 -284 0
-30 -283 0
-29 -59 0
-29 -58 0
-29 -84 0
-29 -83 0
-29 -82 0
-29 -81 0
-29 -109 0
-29 -108 0
-29 -107 0
-29 -106 0
-29 -105 0
-29 -104 0
-29 -134 0
-29 -133 0
-29 -132 0
-29 -131 0
-29 -130 0
-29 -129 0
-29 -159 0
-29 -158 0
-29 -157 0
-29 -156 0
-29 -184 0
-29 -183 0
-29 -209 0
-29 -208 0
-29 -234 0
-29 -233 0
-29 -232 0
-29 -231 0
-29 -259 0
-29 -258 0
-29 -284 0
-29 -283 0
-59 -58 0
-59 -84 0
-59 -83 0
-59 -82 0
-59 -81 0
-59 -109 0
-59 -108 0
-59 -107 0
-59 -106 0
-59 -105 0
-59 -104 0
-59 -134 0
-59 -133 0
-59 -132 0
-59 -131 0
-59 -130 0
-59 -129 0
-59 -159 0
-59 -158 0
-59 -157 0
-59 -156 0
-59 -184 0
-59 -183 0
-59 -209 0
-59 -208 0
-59 -234 0
-59 -233 0
-59 -232 0
-59 -231 0
-59 -259 0
-59 -258 0
-59 -284 0
-59 -283 0
-58 -84 0
-58 -83 0
-58 -82 0
-58 -81 0
-58 -109 0
-58 -108 0
-58 -107 0
-58 -106 0
-58 -105 0
-58 -104 0
-58 -134 0
-58 -133 0
-58 -132 0
-58 -131 0
-58 -130 0
-58 -129 0
-58 -159 0
-58 -158 0
-58 -157 0
-58 -156 0
-58 -184 0
-58 -183 0
-58 -209 0
-58 -208 0
-58 -234 0
-58 -233 0
-58 -232 0
-58 -231 0
-58 -259 0
-58 -258 0
-58 -284 0
-58 -283 0
-84 -83 0
-84 -82 0
-84 -81 0
-84 -109 0
-84 -108 0
-84 -107 0
-84 -106 0
-84 -105 0
-84 -104 0
-84 -134 0
-84 -133 0
-84 -132 0
-84 -131 0
-84 -130 0
-84 -129 0
-84 -159 0
-84 -158 0
-84 -157 0
-84 -156 0
-84 -184 0
-84 -183 0
-84 -209 0
-84 -208 0
-84 -234 0
-84 -233 0
-84 -232 0
-84 -231 0
-84 -259 0
-84 -258 0
-84 -284 0
-84 -283 0
-83 -82 0
-83 -81 0
-83 -109 0
-83 -108 0
-83 -107 0
-83 -106 0
-83 -105 0
-83 -104 0
-83 -134 0
-83 -133 0
-83 -132 0
-83 -131 0
-83 -130 0
-83 -129 0
-83 -159 0
-83 -158 0
-83 -157 0
-83 -156 0
-83 -184 0
-83 -183 0
-83 -209 0
-83 -208 0
-83 -234 0
-83 -233 0
-83 -232 0
-83 -231 0
-83 -259 0
-83 -258 0
-83 -284 0
-83 -283 0
-82 -81 0
-82 -109 0
-82 -108 0
-82 -107 0
-82 -106 0
-82 -105 0
-82 -104 0
-82 -134 0
-82 -133 0
-82 -132 0
-82 -131 0
-82 -130 0
-82 -129 0
-82 -159 0
-82 -158 0
-82 -157 0
-82 -156 0
-82 -184 0
-82 -183 0
-82 -209 0
-82 -208 0
-82 -234 0
-82 -233 0
-82 -232 0
-82 -231 0
-82 -259 0
-82 -258 0
-82 -284 0
-82 -283 0
-81 -109 0
-81 -108 0
-81 -107 0
-81 -106 0
-81 -105 0
-81 -104 0
-81 -134 0
-81 -133 0
-81 -132 0
-81 -131 0
-81 -130 0
-81 -129 0
-81 -159 0
-81 -158 0
-81 -157 0
-81 -156 0
-81 -184 0
-81 -183 0
-81 -209 0
-81 -208 0
-81 -234 0
-81 -233 0
-81 -232 0
-81 -231 0
-81 -259 0
-81 -258 0
-81 -284 0
-81 -283 0
-109 -108 0
-109 -107 0
-109 -106 0
-109 -105 0
-109 -104 0
-109 -134 0
-109 -133 0
-109 -132 0
-109 -131 0
-109 -130 0
-109 -129 0
-109 -159 0
-109 -158 0
-109 -157 0
-109 -156 0
-109 -184 0
-109 -183 0
-109 -209 0
-109 -208 0
-109 -234 0
-109 -233 0
-109 -232 0
-109 -231 0
-109 -259 0
-109 -258 0
-109 -284 0
-109 -283 0
-108 -107 0
-108 -106 0
-108 -105 0
-108 -104 0
-108 -134 0
-108 -133 0
-108 -132 0
-108 -131 0
-108 -130 0
-108 -129 0
-108 -159 0
-108 -158 0
-108 -157 0
-108 -156 0
-108 -184 0
-108 -183 0
-108 -209 0
-108 -208 0
-108 -234 0
-108 -233 0
-108 -232 0
-108 -231 0
-108 -259 0
-108 -258 0
-108 -284 0
-108 -283 0
-107 -106 0
-107 -105 0
-107 -104 0
-107 -134 0
-107 -133 0
-107 -132 0
-107 -131 0
-107 -130 0
-107 -129 0
-107 -159 0
-107 -158 0
-107 -157 0
-107 -156 0
-107 -184 0
-107 -183 0
-107 -209 0
-107 -208 0
-107 -234 0
-107 -233 0
-107 -232 0
-107 -231 0
-107 -259 0
-107 -258 0
-107 -284 0
-107 -283 0
-106 -105 0
-106 -104 0
-106 -134 0
-106 -133 0
-106 -132 0
-106 -131 0
-106 -130 0
-106 -129 0
-106 -159 0
-106 -158 0
-106 -157 0
-106 -156 0
-106 -184 0
-106 -183 0
-106 -209 0
-106 -208 0
-106 -234 0
-106 -233 0
-106 -232 0
-106 -231 0
-106 -259 0
-106 -258 0
-106 -284 0
-106 -283 0
-105 -104 0
-105 -134 0
-105 -133 0
-105 -132 0
-105 -131 0
-105 -130 0
-105 -129 0
-105 -159 0
-105 -158 0
-105 -157 0
-105 -156 0
-105 -184 0
-105 -183 0
-105 -209 0
-105 -208 0
-105 -234 0
-105 -233 0
-105 -232 0
-105 -231 0
-105 -259 0
-105 -258 0
-105 -284 0
-105 -283 0
-104 -134 0
-104 -133 0
-104 -132 0
-104 -131 0
-104 -130 0
-104 -129 0
-104 -159 0
-104 -158 0
-104 -157 0
-104 -156 0
-104 -184 0
-104 -183 0
-104 -209 0
-104 -208 0
-104 -234 0
-104 -233 0
-104 -232 0
-104 -231 0
-104 -259 0
-104 -258 0
-104 -284 0
-104 -283 0
-134 -133 0
-134 -132 0
-134 -131 0
-134 -130 0
-134 -129 0
-134 -159 0
-134 -158 0
-134 -157 0
-134 -156 0
-134 -184 0
-134 -183 0
-134 -209 0
-134 -208 0
-134 -234 0
-134 -233 0
-134 -232 0
-134 -231 0
-134 -259 0
-134 -258 0
-134 -284 0
-134 -283 0
-133 -132 0
-133 -131 0
-133 -130 0
-133 -129 0
-133 -159 0
-133 -158 0
-133 -157 0
-133 -156 0
-133 -184 0
-133 -183 0
-133 -209 0
-133 -208 0
-133 -234 0
-133 -233 0
-133 -232 0
-133 -231 0
-133 -259 0
-133 -258 0
-133 -284 0
-133 -283 0
-132 -131 0
-132 -130 0
-132 -129 0
-132 -159 0
-132 -158 0
-132 -157 0
-132 -156 0
-132 -184 0
-132 -183 0
-132 -209 0
-132 -208 0
-132 -234 0
-132 -233 0
-132 -232 0
-132 -231 0
-132 -259 0
-132 -258 0
-132 -284 0
-132 -283 0
-131 -130 0
-131 -129 0
-131 -159 0
-131 -158 0
-131 -157 0
-131 -156 0
-131 -184 0
-131 -183 0
-131 -209 0
-131 -208 0
-131 -234 0
-131 -233 0
-131 -232 0
-131 -231 0
-131 -259 0
-131 -258 0
-131 -284 0
-131 -283 0
-130 -129 0
-130 -159 0
-130 -158 0
-130 -157 0
-130 -156 0
-130 -184 0
-130 -183 0
-130 -209 0
-130 -208 0
-130 -234 0
-130 -233 0
-130 -232 0
-130 -231 0
-130 -259 0
-130 -258 0
-130 -284 0
-130 -283 0
-129 -159 0
-129 -158 0
-129 -157 0
-129 -156 0
-129 -184 0
-129 -183 0
-129 -209 0
-129 -208 0
-129 -234 0
-129 -233 0
-129 -232 0
-129 -231 0
-129 -259 0
-129 -258 0
-129 -284 0
-129 -283 0
-159 -158 0
-159 -157 0
-159 -156 0
-159 -184 0
-159 -183 0
-159 -209 0
-159 -208 0
-159 -234 0
-159 -233 0
-159 -232 0
-159 -231 0
-159 -259 0
-159 -258 0
-159 -284 0
-159 -283 0
-158 -157 0
-158 -156 0
-158 -184 0
-158 -183 0
-158 -209 0
-158 -208 0
-158 -234 0
-158 -233 0
-158 -232 0
-158 -231 0
-158 -259 0
-158 -258 0
-158 -284 0
-158 -283 0
-157 -156 0
-157 -184 0
-157 -183 0
-157 -209 0
-157 -208 0
-157 -234 0
-157 -233 0
-157 -232 0
-157 -231 0
-157 -259 0
-157 -258 0
-157 -284 0
-157 -283 0
-156 -184 0
-156 -183 0
-156 -209 0
-156 -208 0
-156 -234 0
-156 -233 0
-156 -232 0
-156 -231 0
-156 -259 0
-156 -258 0
-156 -284 0
-156 -283 0
-184 -183 0
-184 -209 0
-184 -208 0
-184 -234 0
-184 -233 0
-184 -232 0
-184 -231 0
-184 -259 0
-184 -258 0
-184 -284 0
-184 -283 0
-183 -209 0
-183 -208 0
-183 -234 0
-183 -233 0
-183 -232 0
-183 -231 0
-183 -259 0
-183 -258 0
-183 -284 0
-183 -283 0
-209 -208 0
-209 -234 0
-209 -233 0
-209 -232 0
-209 -231 0
-209 -259 0
-209 -258 0
-209 -284 0
-209 -283 0
-208 -234 0
-208 -233 0
-208 -232 0
-208 -231 0
-208 -259 0
-208 -258 0
-208 -284 0
-208 -283 0
-234 -233 0
-234 -232 0
-234 -231 0
-234 -259 0
-234 -258 0
-234 -284 0
-234 -283 0
-233 -232 0
-233 -231 0
-233 -259 0
-233 -258 0
-233 -284 0
-233 -283 0
-232 -231 0
-232 -259 0
-232 -258 0
-232 -284 0
-232 -283 0
-231 -259 0
-231 -258 0
-231 -284 0
-231 -283 0
-259 -258 0
-259 -284 0
-259 -283 0
-258 -284 0
-258 -283 0
-284 -283 0
-10 -9 0
-10 -8 0
-10 -7 0
-10 -6 0
-10 -5 0
-10 -35 0
-10 -34 0
-10 -33 0
-10 -32 0
-10 -31 0
-10 -30 0
-10 -60 0
-10 -59 0
-10 -85 0
-10 -84 0
-10 -83 0
-10 -82 0
-10 -110 0
-10 -109 0
-10 -108 0
-10 -107 0
-10 -106 0
-10 -105 0
-10 -135 0
-10 -134 0
-10 -133 0
-10 -132 0
-10 -131 0
-10 -130 0
-10 -160 0
-10 -159 0
-10 -158 0
-10 -157 0
-10 -185 0
-10 -184 0
-10 -210 0
-10 -209 0
-10 -235 0
-10 -234 0
-10 -233 0
-10 -232 0
-10 -260 0
-10 -259 0
-10 -285 0
-10 -284 0
-9 -8 0
-9 -7 0
-9 -6 0
-9 -5 0
-9 -35 0
-9 -34 0
-9 -33 0
-9 -32 0
-9 -31 0
-9 -30 0
-9 -60 0
-9 -59 0
-9 -85 0
-9 -84 0
-9 -83 0
-9 -82 0
-9 -110 0
-9 -109 0
-9 -108 0
-9 -107 0
-9 -106 0
-9 -105 0
-9 -135 0
-9 -134 0
-9 -133 0
-9 -132 0
-9 -131 0
-9 -130 0
-9 -160 0
-9 -159 0
-9 -158 0
-9 -157 0
-9 -185 0
-9 -184 0
-9 -210 0
-9 -209 0
-9 -235 0
-9 -234 0
-9 -233 0
-9 -232 0
-9 -260 0
-9 -259 0
-9 -285 0
-9 -284 0
-8 -7 0
-8 -6 0
-8 -5 0
-8 -35 0
-8 -34 0
-8 -33 0
-8 -32 0
-8 -31 0
-8 -30 0
-8 -60 0
-8 -59 0
-8 -85 0
-8 -84 0
-8 -83 0
-8 -82 0
-8 -110 0
-8 -109 0
-8 -108 0
-8 -107 0
-8 -106 0
-8 -105 0
-8 -135 0
-8 -134 0
-8 -133 0
-8 -132 0
-8 -131 0
-8 -130 0
-8 -160 0
-8 -159 0
-8 -158 0
-8 -157 0
-8 -185 0
-8 -184 0
-8 -210 0
-8 -209 0
-8 -235 0
-8 -234 0
-8 -233 0
-8 -232 0
-8 -260 0
-8 -259 0
-8 -285 0
-8 -284 0
-7 -6 0
-7 -5 0
-7 -35 0
-7 -34 0
-7 -33 0
-7 -32 0
-7 -31 0
-7 -30 0
-7 -60 0
-7 -59 0
-7 -85 0
-7 -84 0
-7 -83 0
-7 -82 0
-7 -110 0
-7 -109 0
-7 -108 0
-7 -107 0
-7 -106 0
-7 -105 0
-7 -135 0
-7 -134 0
-7 -133 0
-7 -132 0
-7 -131 0
-7 -130 0
-7 -160 0
-7 -159 0
-7 -158 0
-7 -157 0
-7 -185 0
-7 -184 0
-7 -210 0
-7 -209 0
-7 -235 0
-7 -234 0
-7 -233 0
-7 -232 0
-7 -260 0
-7 -259 0
-7 -285 0
-7 -284 0
-6 -5 0
-6 -35 0
-6 -34 0
-6 -33 0
-6 -32 0
-6 -31 0
-6 -30 0
-6 -60 0
-6 -59 0
-6 -85 0
-6 -84 0
-6 -83 0
-6 -82 0
-6 -110 0
-6 -109 0
-6 -108 0
-6 -107 0
-6 -106 0
-6 -105 0
-6 -135 0
-6 -134 0
-6 -133 0
-6 -132 0
-6 -131 0
-6 -130 0
-6 -160 0
-6 -159 0
-6 -158 0
-6 -157 0
-6 -185 0
-6 -184 0
-6 -210 0
-6 -209 0
-6 -235 0
-6 -234 0
-6 -233 0
-6 -232 0
-6 -260 0
-6 -259 0
-6 -285 0
-6 -284 0
-5 -35 0
-5 -34 0
-5 -33 0
-5 -32 0
-5 -31 0
-5 -30 0
-5 -60 0
-5 -59 0
-5 -85 0
-5 -84 0
-5 -83 0
-5 -82 0
-5 -110 0
-5 -109 0
-5 -108 0
-5 -107 0
-5 -106 0
-5 -105 0
-5 -135 0
-5 -134 0
-5 -133 0
-5 -132 0
-5 -131 0
-5 -130 0
-5 -160 0
-5 -159 0
-5 -158 0
-5 -157 0
-5 -185 0
-5 -184 0
-5 -210 0
-5 -209 0
-5 -235 0
-5 -234 0
-5 -233 0
-5 -232 0
-5 -260 0
-5 -259 0
-5 -285 0
-5 -284 0
-35 -34 0
-35 -33 0
-35 -32 0
-35 -31 0
-35 -30 0
-35 -60 0
-35 -59 0
-35 -85 0
-35 -84 0
-35 -83 0
-35 -82 0
-35 -110 0
-35 -109 0
-35 -108 0
-35 -107 0
-35 -106 0
-35 -105 0
-35 -135 0
-35 -134 0
-35 -133 0
-35 -132 0
-35 -131 0
-35 -130 0
-35 -160 0
-35 -159 0
-35 -158 0
-35 -157 0
-35 -185 0
-35 -184 0
-35 -210 0
-35 -209 0
-35 -235 0
-35 -234 0
-35 -233 0
-35 -232 0
-35 -260 0
-35 -259 0
-35 -285 0
-35 -284 0
-34 -33 0
-34 -32 0
-34 -31 0
-34 -30 0
-34 -60 0
-34 -59 0
-34 -85 0
-34 -84 0
-34 -83 0
-34 -82 0
-34 -110 0
-34 -109 0
-34 -108 0
-34 -107 0
-34 -106 0
-34 -105 0
-34 -135 0
-34 -134 0
-34 -133 0
-34 -132 0
-34 -131 0
-34 -130 0
-34 -160 0
-34 -159 0
-34 -158 0
-34 -157 0
-34 -185 0
-34 -184 0
-34 -210 0
-34 -209 0
-34 -235 0
-34 -234 0
-34 -233 0
-34 -232 0
-34 -260 0
-34 -259 0
-34 -285 0
-34 -284 0
-33 -32 0
-33 -31 0
-33 -30 0
-33 -60 0
-33 -59 0
-33 -85 0
-33 -84 0
-33 -83 0
-33 -82 0
-33 -110 0
-33 -109 0
-33 -108 0
-33 -107 0
-33 -106 0
-33 -105 0
-33 -135 0
-33 -134 0
-33 -133 0
-33 -132 0
-33 -131 0
-33 -130 0
-33 -160 0
-33 -159 0
-33 -158 0
-33 -157 0
-33 -185 0
-33 -184 0
-33 -210 0
-33 -209 0
-33 -235 0
-33 -234 0
-33 -233 0
-33 -232 0
-33 -260 0
-33 -259 0
-33 -285 0
-33 -284 0
-32 -31 0
-32 -30 0
-32 -60 0
-32 -59 0
-32 -85 0
-32 -84 0
-32 -83 0
-32 -82 0
-32 -110 0
-32 -109 0
-32 -108 0
-32 -107 0
-32 -106 0
-32 -105 0
-32 -135 0
-32 -134 0
-32 -133 0
-32 -132 0
-32 -131 0
-32 -130 0
-32 -160 0
-32 -159 0
-32 -158 0
-32 -157 0
-32 -185 0
-32 -184 0
-32 -210 0
-32 -209 0
-32 -235 0
-32 -234 0
-32 -233 0
-32 -232 0
-32 -260 0
-32 -259 0
-32 -285 0
-32 -284 0
-31 -30 0
-31 -60 0
-31 -59 0
-31 -85 0
-31 -84 0
-31 -83 0
-31 -82 0
-31 -110 0
-31 -109 0
-31 -108 0
-31 -107 0
-31 -106 0
-31 -105 0
-31 -135 0
-31 -134 0
-31 -133 0
-31 -132 0
-31 -131 0
-31 -130 0
-31 -160 0
-31 -159 0
-31 -158 0
-31 -157 0
-31 -185 0
-31 -184 0
-31 -210 0
-31 -209 0
-31 -235 0
-31 -234 0
-31 -233 0
-31 -232 0
-31 -260 0
-31 -259 0
-31 -285 0
-31 -284 0
-30 -60 0
-30 -59 0
-30 -85 0
-30 -84 0
-30 -83 0
-30 -82 0
-30 -110 0
-30 -109 0
-30 -108 0
-30 -107 0
-30 -106 0
-30 -105 0
-30 -135 0
-30 -134 0
-30 -133 0
-30 -132 0
-30 -131 0
-30 -130 0
-30 -160 0
-30 -159 0
-30 -158 0
-30 -157 0
-30 -185 0
-30 -184 0
-30 -210 0
-30 -209 0
-30 -235 0
-30 -234 0
-30 -233 0
-30 -232 0
-30 -260 0
-30 -259 0
-30 -285 0
-30 -284 0
-60 -59 0
-60 -85 0
-60 -84 0
-60 -83 0
-60 -82 0
-60 -110 0
-60 -109 0
-60 -108 0
-60 -107 0
-60 -106 0
-60 -105 0
-60 -135 0
-60 -134 0
-60 -133 0
-60 -132 0
-60 -131 0
-60 -130 0
-60 -160 0
-60 -159 0
-60 -158 0
-60 -157 0
-60 -185 0
-60 -184 0
-60 -210 0
-60 -209 0
-60 -235 0
-60 -234 0
-60 -233 0
-60 -232 0
-60 -260 0
-60 -259 0
-60 -285 0
-60 -284 0
-59 -85 0
-59 -84 0
-59 -83 0
-59 -82 0
-59 -110 0
-59 -109 0
-59 -108 0
-59 -107 0
-59 -106 0
-59 -105 0
-59 -135 0
-59 -134 0
-59 -133 0
-59 -132 0
-59 -131 0
-59 -130 0
-59 -160 0
-59 -159 0
-59 -158 0
-59 -157 0
-59 -185 0
-59 -184 0
-59 -210 0
-59 -209 0
-59 -235 0
-59 -234 0
-59 -233 0
-59 -232 0
-59 -260 0
-59 -259 0
-59 -285 0
-59 -284 0
-85 -84 0
-85 -83 0
-85 -82 0
-85 -110 0
-85 -109 0
-85 -108 0
-85 -107 0
-85 -106 0
-85 -105 0
-85 -135 0
-85 -134 0
-85 -133 0
-85 -132 0
-85 -131 0
-85 -130 0
-85 -160 0
-85 -159 0
-85 -158 0
-85 -157 0
-85 -185 0
-85 -184 0
-85 -210 0
-85 -209 0
-85 -235 0
-85 -234 0
-85 -233 0
-85 -232 0
-85 -260 0
-85 -259 0
-85 -285 0
-85 -284 0
-84 -83 0
-84 -82 0
-84 -110 0
-84 -109 0
-84 -108 0
-84 -107 0
-84 -106 0
-84 -105 0
-84 -135 0
-84 -134 0
-84 -133 0
-84 -132 0
-84 -131 0
-84 -130 0
-84 -160 0
-84 -159 0
-84 -158 0
-84 -157 0
-84 -185 0
-84 -184 0
-84 -210 0
-84 -209 0
-84 -235 0
-84 -234 0
-84 -233 0
-84 -232 0
-84 -260 0
-84 -259 0
-84 -285 0
-84 -284 0
-83 -82 0
-83 -110 0
-83 -109 0
-83 -108 0
-83 -107 0
-83 -106 0
-83 -105 0
-83 -135 0
-83 -134 0
-83 -133 0
-83 -132 0
-83 -131 0
-83 -130 0
-83 -160 0
-83 -159 0
-83 -158 0
-83 -157 0
-83 -185 0
-83 -184 0
-83 -210 0
-83 -209 0
-83 -235 0
-83 -234 0
-83 -233 0
-83 -232 0
-83 -260 0
-83 -259 0
-83 -285 0
-83 -284 0
-82 -110 0
-82 -109 0
-82 -108 0
-82 -107 0
-82 -106 0
-82 -105 0
-82 -135 0
-82 -134 0
-82 -133 0
-82 -132 0
-82 -131 0
-82 -130 0
-82 -160 0
-82 -159 0
-82 -158 0
-82 -157 0
-82 -185 0
-82 -184 0
-82 -210 0
-82 -209 0
-82 -235 0
-82 -234 0
-82 -233 0
-82 -232 0
-82 -260 0
-82 -259 0
-82 -285 0
-82 -284 0
-110 -109 0
-110 -108 0
-110 -107 0
-110 -106 0
-110 -105 0
-110 -135 0
-110 -134 0
-110 -133 0
-110 -132 0
-110 -131 0
-110 -130 0
-110 -160 0
-110 -159 0
-110 -158 0
-110 -157 0
-110 -185 0
-110 -184 0
-110 -210 0
-110 -209 0
-110 -235 0
-110 -234 0
-110 -233 0
-110 -232 0
-110 -260 0
-110 -259 0
-110 -285 0
-110 -284 0
-109 -108 0
-109 -107 0
-109 -106 0
-109 -105 0
-109 -135 0
-109 -134 0
-109 -133 0
-109 -132 0
-109 -131 0
-109 -130 0
-109 -160 0
-109 -159 0
-109 -158 0
-109 -157 0
-109 -185 0
-109 -184 0
-109 -210 0
-109 -209 0
-109 -235 0
-109 -234 0
-109 -233 0
-109 -232 0
-109 -260 0
-109 -259 0
-109 -285 0
-109 -284 0
-108 -107 0
-108 -106 0
-108 -105 0
-108 -135 0
-108 -134 0
-108 -133 0
-108 -132 0
-108 -131 0
-108 -130 0
-108 -160 0
-108 -159 0
-108 -158 0
-108 -157 0
-108 -185 0
-108 -184 0
-108 -210 0
-108 -209 0
-108 -235 0
-108 -234 0
-108 -233 0
-108 -232 0
-108 -260 0
-108 -259 0
-108 -285 0
-108 -284 0
-107 -106 0
-107 -105 0
-107 -135 0
-107 -134 0
-107 -133 0
-107 -132 0
-107 -131 0
-107 -130 0
-107 -160 0
-107 -159 0
-107 -158 0
-107 -157 0
-107 -185 0
-107 -184 0
-107 -210 0
-107 -209 0
-107 -235 0
-107 -234 0
-107 -233 0
-107 -232 0
-107 -260 0
-107 -259 0
-107 -285 0
-107 -284 0
-106 -105 0
-106 -135 0
-106 -134 0
-106 -133 0
-106 -132 0
-106 -131 0
-106 -130 0
-106 -160 0
-106 -159 0
-106 -158 0
-106 -157 0
-106 -185 0
-106 -184 0
-106 -210 0
-106 -209 0
-106 -235 0
-106 -234 0
-106 -233 0
-106 -232 0
-106 -260 0
-106 -259 0
-106 -285 0
-106 -284 0
-105 -135 0
-105 -134 0
-105 -133 0
-105 -132 0
-105 -131 0
-105 -130 0
-105 -160 0
-105 -159 0
-105 -158 0
-105 -157 0
-105 -185 0
-105 -184 0
-105 -210 0
-105 -209 0
-105 -235 0
-105 -234 0
-105 -233 0
-105 -232 0
-105 -260 0
-105 -259 0
-105 -285 0
-105 -284 0
-135 -134 0
-135 -133 0
-135 -132 0
-135 -131 0
-135 -130 0
-135 -160 0
-135 -159 0
-135 -158 0
-135 -157 0
-135 -185 0
-135 -184 0
-135 -210 0
-135 -209 0
-135 -235 0
-135 -234 0
-135 -233 0
-135 -232 0
-135 -260 0
-135 -259 0
-135 -285 0
-135 -284 0
-134 -133 0
-134 -132 0
-134 -131 0
-134 -130 0
-134 -160 0
-134 -159 0
-134 -158 0
-134 -157 0
-134 -185 0
-134 -184 0
-134 -210 0
-134 -209 0
-134 -235 0
-134 -234 0
-134 -233 0
-134 -232 0
-134 -260 0
-134 -259 0
-134 -285 0
-134 -284 0
-133 -132 0
-133 -131 0
-133 -130 0
-133 -160 0
-133 -159 0
-133 -158 0
-133 -157 0
-133 -185 0
-133 -184 0
-133 -210 0
-133 -209 0
-133 -235 0
-133 -234 0
-133 -233 0
-133 -232 0
-133 -260 0
-133 -259 0
-133 -285 0
-133 -284 0
-132 -131 0
-132 -130 0
-132 -160 0
-132 -159 0
-132 -158 0
-132 -157 0
-132 -185 0
-132 -184 0
-132 -210 0
-132 -209 0
-132 -235 0
-132 -234 0
-132 -233 0
-132 -232 0
-132 -260 0
-132 -259 0
-132 -285 0
-132 -284 0
-131 -130 0
-131 -160 0
-131 -159 0
-131 -158 0
-131 -157 0
-131 -185 0
-131 -184 0
-131 -210 0
-131 -209 0
-131 -235 0
-131 -234 0
-131 -233 0
-131 -232 0
-131 -260 0
-131 -259 0
-131 -285 0
-131 -284 0
-130 -160 0
-130 -159 0
-130 -158 0
-130 -157 0
-130 -185 0
-130 -184 0
-130 -210 0
-130 -209 0
-130 -235 0
-130 -234 0
-130 -233 0
-130 -232 0
-130 -260 0
-130 -259 0
-130 -285 0
-130 -284 0
-160 -159 0
-160 -158 0
-160 -157 0
-160 -185 0
-160 -184 0
-160 -210 0
-160 -209 0
-160 -235 0
-160 -234 0
-160 -233 0
-160 -232 0
-160 -260 0
-160 -259 0
-160 -285 0
-160 -284 0
-159 -158 0
-159 -157 0
-159 -185 0
-159 -184 0
-159 -210 0
-159 -209 0
-159 -235 0
-159 -234 0
-159 -233 0
-159 -232 0
-159 -260 0
-159 -259 0
-159 -285 0
-159 -284 0
-158 -157 0
-158 -185 0
-158 -184 0
-158 -210 0
-158 -209 0
-158 -235 0
-158 -234 0
-158 -233 0
-158 -232 0
-158 -260 0
-158 -259 0
-158 -285 0
-158 -284 0
-157 -185 0
-157 -184 0
-157 -210 0
-157 -209 0
-157 -235 0
-157 -234 0
-157 -233 0
-157 -232 0
-157 -260 0
-157 -259 0
-157 -285 0
-157 -284 0
-185 -184 0
-185 -210 0
-185 -209 0
-185 -235 0
-185 -234 0
-185 -233 0
-185 -232 0
-185 -260 0
-185 -259 0
-185 -285 0
-185 -284 0
-184 -210 0
-184 -209 0
-184 -235 0
-184 -234 0
-184 -233 0
-184 -232 0
-184 -260 0
-184 -259 0
-184 -285 0
-184 -284 0
-210 -209 0
-210 -235 0
-210 -234 0
-210 -233 0
-210 -232 0
-210 -260 0
-210 -259 0
-210 -285 0
-210 -284 0
-209 -235 0
-209 -234 0
-209 -233 0
-209 -232 0
-209 -260 0
-209 -259 0
-209 -285 0
-209 -284 0
-235 -234 0
-235 -233 0
-235 -232 0
-235 -260 0
-235 -259 0
-235 -285 0
-235 -284 0
-234 -233 0
-234 -232 0
-234 -260 0
-234 -259 0
-234 -285 0
-234 -284 0
-233 -232 0
-233 -260 0
-233 -259 0
-233 -285 0
-233 -284 0
-232 -260 0
-232 -259 0
-232 -285 0
-232 -284 0
-260 -259 0
-260 -285 0
-260 -284 0
-259 -285 0
-259 -284 0
-285 -284 0
-11 -10 0
-11 -9 0
-11 -8 0
-11 -7 0
-11 -6 0
-11 -36 0
-11 -35 0
-11 -34 0
-11 -33 0
-11 -32 0
-11 -31 0
-11 -61 0
-11 -60 0
-11 -86 0
-11 -85 0
-11 -84 0
-11 -83 0
-11 -111 0
-11 -110 0
-11 -109 0
-11 -108 0
-11 -107 0
-11 -106 0
-11 -136 0
-11 -135 0
-11 -134 0
-11 -133 0
-11 -132 0
-11 -131 0
-11 -161 0
-11 -160 0
-11 -159 0
-11 -158 0
-11 -186 0
-11 -185 0
-11 -211 0
-11 -210 0
-11 -236 0
-11 -235 0
-11 -234 0
-11 -233 0
-11 -261 0
-11 -260 0
-11 -286 0
-11 -285 0
-10 -9 0
-10 -8 0
-10 -7 0
-10 -6 0
-10 -36 0
-10 -35 0
-10 -34 0
-10 -33 0
-10 -32 0
-10 -31 0
-10 -61 0
-10 -60 0
-10 -86 0
-10 -85 0
-10 -84 0
-10 -83 0
-10 -111 0
-10 -110 0
-10 -109 0
-10 -108 0
-10 -107 0
-10 -106 0
-10 -136 0
-10 -135 0
-10 -134 0
-10 -133 0
-10 -132 0
-10 -131 0
-10 -161 0
-10 -160 0
-10 -159 0
-10 -158 0
-10 -186 0
-10 -185 0
-10 -211 0
-10 -210 0
-10 -236 0
-10 -235 0
-10 -234 0
-10 -233 0
-10 -261 0
-10 -260 0
-10 -286 0
-10 -285 0
-9 -8 0
-9 -7 0
-9 -6 0
-9 -36 0
-9 -35 0
-9 -34 0
-9 -33 0
-9 -32 0
-9 -31 0
-9 -61 0
-9 -60 0
-9 -86 0
-9 -85 0
-9 -84 0
-9 -83 0
-9 -111 0
-9 -110 0
-9 -109 0
-9 -108 0
-9 -107 0
-9 -106 0
-9 -136 0
-9 -135 0
-9 -134 0
-9 -133 0
-9 -132 0
-9 -131 0
-9 -161 0
-9 -160 0
-9 -159 0
-9 -158 0
-9 -186 0
-9 -185 0
-9 -211 0
-9 -210 0
-9 -236 0
-9 -235 0
-9 -234 0
-9 -233 0
-9 -261 0
-9 -260 0
-9 -286 0
-9 -285 0
-8 -7 0
-8 -6 0
-8 -36 0
-8 -35 0
-8 -34 0
-8 -33 0
-8 -32 0
-8 -31 0
-8 -61 0
-8 -60 0
-8 -86 0
-8 -85 0
-8 -84 0
-8 -83 0
-8 -111 0
-8 -110 0
-8 -109 0
-8 -108 0
-8 -107 0
-8 -106 0
-8 -136 0
-8 -135 0
-8 -134 0
-8 -133 0
-8 -132 0
-8 -131 0
-8 -161 0
-8 -160 0
-8 -159 0
-8 -158 0
-8 -186 0
-8 -185 0
-8 -211 0
-8 -210 0
-8 -236 0
-8 -235 0
-8 -234 0
-8 -233 0
-8 -261 0
-8 -260 0
-8 -286 0
-8 -285 0
-7 -6 0
-7 -36 0
-7 -35 0
-7 -34 0
-7 -33 0
-7 -32 0
-7 -31 0
-7 -61 0
-7 -60 0
-7 -86 0
-7 -85 0
-7 -84 0
-7 -83 0
-7 -111 0
-7 -110 0
-7 -109 0
-7 -108 0
-7 -107 0
-7 -106 0
-7 -136 0
-7 -135 0
-7 -134 0
-7 -133 0
-7 -132 0
-7 -131 0
-7 -161 0
-7 -160 0
-7 -159 0
-7 -158 0
-7 -186 0
-7 -185 0
-7 -211 0
-7 -210 0
-7 -236 0
-7 -235 0
-7 -234 0
-7 -233 0
-7 -261 0
-7 -260 0
-7 -286 0
-7 -285 0
-6 -36 0
-6 -35 0
-6 -34 0
-6 -33 0
-6 -32 0
-6 -31 0
-6 -61 0
-6 -60 0
-6 -86 0
-6 -85 0
-6 -84 0
-6 -83 0
-6 -111 0
-6 -110 0
-6 -109 0
-6 -108 0
-6 -107 0
-6 -106 0
-6 -136 0
-6 -135 0
-6 -134 0
-6 -133 0
-6 -132 0
-6 -131 0
-6 -161 0
-6 -160 0
-6 -159 0
-6 -158 0
-6 -186 0
-6 -185 0
-6 -211 0
-6 -210 0
-6 -236 0
-6 -235 0
-6 -234 0
-6 -233 0
-6 -261 0
-6 -260 0
-6 -286 0
-6 -285 0
-36 -35 0
-36 -34 0
-36 -33 0
-36 -32 0
-36 -31 0
-36 -61 0
-36 -60 0
-36 -86 0
-36 -85 0
-36 -84 0
-36 -83 0
-36 -111 0
-36 -110 0
-36 -109 0
-36 -108 0
-36 -107 0
-36 -106 0
-36 -136 0
-36 -135 0
-36 -134 0
-36 -133 0
-36 -132 0
-36 -131 0
-36 -161 0
-36 -160 0
-36 -159 0
-36 -158 0
-36 -186 0
-36 -185 0
-36 -211 0
-36 -210 0
-36 -236 0
-36 -235 0
-36 -234 0
-36 -233 0
-36 -261 0
-36 -260 0
-36 -286 0
-36 -285 0
-35 -34 0
-35 -33 0
-35 -32 0
-35 -31 0
-35 -61 0
-35 -60 0
-35 -86 0
-35 -85 0
-35 -84 0
-35 -83 0
-35 -111 0
-35 -110 0
-35 -109 0
-35 -108 0
-35 -107 0
-35 -106 0
-35 -136 0
-35 -135 0
-35 -134 0
-35 -133 0
-35 -132 0
-35 -131 0
-35 -161 0
-35 -160 0
-35 -159 0
-35 -158 0
-35 -186 0
-35 -185 0
-35 -211 0
-35 -210 0
-35 -236 0
-35 -235 0
-35 -234 0
-35 -233 0
-35 -261 0
-35 -260 0
-35 -286 0
-35 -285 0
-34 -33 0
-34 -32 0
-34 -31 0
-34 -61 0
-34 -60 0
-34 -86 0
-34 -85 0
-34 -84 0
-34 -83 0
-34 -111 0
-34 -110 0
-34 -109 0
-34 -108 0
-34 -107 0
-34 -106 0
-34 -136 0
-34 -135 0
-34 -134 0
-34 -133 0
-34 -132 0
-34 -131 0
-34 -161 0
-34 -160 0
-34 -159 0
-34 -158 0
-34 -186 0
-34 -185 0
-34 -211 0
-34 -210 0
-34 -236 0
-34 -235 0
-34 -234 0
-34 -233 0
-34 -261 0
-34 -260 0
-34 -286 0
-34 -285 0
-33 -32 0
-33 -31 0
-33 -61 0
-33 -60 0
-33 -86 0
-33 -85 0
-33 -84 0
-33 -83 0
-33 -111 0
-33 -110 0
-33 -109 0
-33 -108 0
-33 -107 0
-33 -106 0
-33 -136 0
-33 -135 0
-33 -134 0
-33 -133 0
-33 -132 0
-33 -131 0
-33 -161 0
-33 -160 0
-33 -159 0
-33 -158 0
-33 -186 0
-33 -185 0
-33 -211 0
-33 -210 0
-33 -236 0
-33 -235 0
-33 -234 0
-33 -233 0
-33 -261 0
-33 -260 0
-33 -286 0
-33 -285 0
-32 -31 0
-32 -61 0
-32 -60 0
-32 -86 0
-32 -85 0
-32 -84 0
-32 -83 0
-32 -111 0
-32 -110 0
-32 -109 0
-32 -108 0
-32 -107 0
-32 -106 0
-32 -136 0
-32 -135 0
-32 -134 0
-32 -133 0
-32 -132 0
-32 -131 0
-32 -161 0
-32 -160 0
-32 -159 0
-32 -158 0
-32 -186 0
-32 -185 0
-32 -211 0
-32 -210 0
-32 -236 0
-32 -235 0
-32 -234 0
-32 -233 0
-32 -261 0
-32 -260 0
-32 -286 0
-32 -285 0
-31 -61 0
-31 -60 0
-31 -86 0
-31 -85 0
-31 -84 0
-31 -83 0
-31 -111 0
-31 -110 0
-31 -109 0
-31 -108 0
-31 -107 0
-31 -106 0
-31 -136 0
-31 -135 0
-31 -134 0
-31 -133 0
-31 -132 0
-31 -131 0
-31 -161 0
-31 -160 0
-31 -159 0
-31 -158 0
-31 -186 0
-31 -185 0
-31 -211 0
-31 -210 0
-31 -236 0
-31 -235 0
-31 -234 0
-31 -233 0
-31 -261 0
-31 -260 0
-31 -286 0
-31 -285 0
-61 -60 0
-61 -86 0
-61 -85 0
-61 -84 0
-61 -83 0
-61 -111 0
-61 -110 0
-61 -109 0
-61 -108 0
-61 -107 0
-61 -106 0
-61 -136 0
-61 -135 0
-61 -134 0
-61 -133 0
-61 -132 0
-61 -131 0
-61 -161 0
-61 -160 0
-61 -159 0
-61 -158 0
-61 -186 0
-61 -185 0
-61 -211 0
-61 -210 0
-61 -236 0
-61 -235 0
-61 -234 0
-61 -233 0
-61 -261 0
-61 -260 0
-61 -286 0
-61 -285 0
-60 -86 0
-60 -85 0
-60 -84 0
-60 -83 0
-60 -111 0
-60 -110 0
-60 -109 0
-60 -108 0
-60 -107 0
-60 -106 0
-60 -136 0
-60 -135 0
-60 -134 0
-60 -133 0
-60 -132 0
-60 -131 0
-60 -161 0
-60 -160 0
-60 -159 0
-60 -158 0
-60 -186 0
-60 -185 0
-60 -211 0
-60 -210 0
-60 -236 0
-60 -235 0
-60 -234 0
-60 -233 0
-60 -261 0
-60 -260 0
-60 -286 0
-60 -285 0
-86 -85 0
-86 -84 0
-86 -83 0
-86 -111 0
-86 -110 0
-86 -109 0
-86 -108 0
-86 -107 0
-86 -106 0
-86 -136 0
-86 -135 0
-86 -134 0
-86 -133 0
-86 -132 0
-86 -131 0
-86 -161 0
-86 -160 0
-86 -159 0
-86 -158 0
-86 -186 0
-86 -185 0
-86 -211 0
-86 -210 0
-86 -236 0
-86 -235 0
-86 -234 0
-86 -233 0
-86 -261 0
-86 -260 0
-86 -286 0
-86 -285 0
-85 -84 0
-85 -83 0
-85 -111 0
-85 -110 0
-85 -109 0
-85 -108 0
-85 -107 0
-85 -106 0
-85 -136 0
-85 -135 0
-85 -134 0
-85 -133 0
-85 -132 0
-85 -131 0
-85 -161 0
-85 -160 0
-85 -159 0
-85 -158 0
-85 -186 0
-85 -185 0
-85 -211 0
-85 -210 0
-85 -236 0
-85 -235 0
-85 -234 0
-85 -233 0
-85 -261 0
-85 -260 0
-85 -286 0
-85 -285 0
-84 -83 0
-84 -111 0
-84 -110 0
-84 -109 0
-84 -108 0
-84 -107 0
-84 -106 0
-84 -136 0
-84 -135 0
-84 -134 0
-84 -133 0
-84 -132 0
-84 -131 0
-84 -161 0
-84 -160 0
-84 -159 0
-84 -158 0
-84 -186 0
-84 -185 0
-84 -211 0
-84 -210 0
-84 -236 0
-84 -235 0
-84 -234 0
-84 -233 0
-84 -261 0
-84 -260 0
-84 -286 0
-84 -285 0
-83 -111 0
-83 -110 0
-83 -109 0
-83 -108 0
-83 -107 0
-83 -106 0
-83 -136 0
-83 -135 0
-83 -134 0
-83 -133 0
-83 -132 0
-83 -131 0
-83 -161 0
-83 -160 0
-83 -159 0
-83 -158 0
-83 -186 0
-83 -185 0
-83 -211 0
-83 -210 0
-83 -236 0
-83 -235 0
-83 -234 0
-83 -233 0
-83 -261 0
-83 -260 0
-83 -286 0
-83 -285 0
-111 -110 0
-111 -109 0
-111 -108 0
-111 -107 0
-111 -106 0
-111 -136 0
-111 -135 0
-111 -134 0
-111 -133 0
-111 -132 0
-111 -131 0
-111 -161 0
-111 -160 0
-111 -159 0
-111 -158 0
-111 -186 0
-111 -185 0
-111 -211 0
-111 -210 0
-111 -236 0
-111 -235 0
-111 -234 0
-111 -233 0
-111 -261 0
-111 -260 0
-111 -286 0
-111 -285 0
-110 -109 0
-110 -108 0
-110 -107 0
-110 -106 0
-110 -136 0
-110 -135 0
-110 -134 0
-110 -133 0
-110 -132 0
-110 -131 0
-110 -161 0
-110 -160 0
-110 -159 0
-110 -158 0
-110 -186 0
-110 -185 0
-110 -211 0
-110 -210 0
-110 -236 0
-110 -235 0
-110 -234 0
-110 -233 0
-110 -261 0
-110 -260 0
-110 -286 0
-110 -285 0
-109 -108 0
-109 -107 0
-109 -106 0
-109 -136 0
-109 -135 0
-109 -134 0
-109 -133 0
-109 -132 0
-109 -131 0
-109 -161 0
-109 -160 0
-109 -159 0
-109 -158 0
-109 -186 0
-109 -185 0
-109 -211 0
-109 -210 0
-109 -236 0
-109 -235 0
-109 -234 0
-109 -233 0
-109 -261 0
-109 -260 0
-109 -286 0
-109 -285 0
-108 -107 0
-108 -106 0
-108 -136 0
-108 -135 0
-108 -134 0
-108 -133 0
-108 -132 0
-108 -131 0
-108 -161 0
-108 -160 0
-108 -159 0
-108 -158 0
-108 -186 0
-108 -185 0
-108 -211 0
-108 -210 0
-108 -236 0
-108 -235 0
-108 -234 0
-108 -233 0
-108 -261 0
-108 -260 0
-108 -286 0
-108 -285 0
-107 -106 0
-107 -136 0
-107 -135 0
-107 -134 0
-107 -133 0
-107 -132 0
-107 -131 0
-107 -161 0
-107 -160 0
-107 -159 0
-107 -158 0
-107 -186 0
-107 -185 0
-107 -211 0
-107 -210 0
-107 -236 0
-107 -235 0
-107 -234 0
-107 -233 0
-107 -261 0
-107 -260 0
-107 -286 0
-107 -285 0
-106 -136 0
-106 -135 0
-106 -134 0
-106 -133 0
-106 -132 0
-106 -131 0
-106 -161 0
-106 -160 0
-106 -159 0
-106 -158 0
-106 -186 0
-106 -185 0
-106 -211 0
-106 -210 0
-106 -236 0
-106 -235 0
-106 -234 0
-106 -233 0
-106 -261 0
-106 -260 0
-106 -286 0
-106 -285 0
-136 -135 0
-136 -134 0
-136 -133 0
-136 -132 0
-136 -131 0
-136 -161 0
-136 -160 0
-136 -159 0
-136 -158 0
-136 -186 0
-136 -185 0
-136 -211 0
-136 -210 0
-136 -236 0
-136 -235 0
-136 -234 0
-136 -233 0
-136 -261 0
-136 -260 0
-136 -286 0
-136 -285 0
-135 -134 0
-135 -133 0
-135 -132 0
-135 -131 0
-135 -161 0
-135 -160 0
-135 -159 0
-135 -158 0
-135 -186 0
-135 -185 0
-135 -211 0
-135 -210 0
-135 -236 0
-135 -235 0
-135 -234 0
-135 -233 0
-135 -261 0
-135 -260 0
-135 -286 0
-135 -285 0
-134 -133 0
-134 -132 0
-134 -131 0
-134 -161 0
-134 -160 0
-134 -159 0
-134 -158 0
-134 -186 0
-134 -185 0
-134 -211 0
-134 -210 0
-134 -236 0
-134 -235 0
-134 -234 0
-134 -233 0
-134 -261 0
-134 -260 0
-134 -286 0
-134 -285 0
-133 -132 0
-133 -131 0
-133 -161 0
-133 -160 0
-133 -159 0
-133 -158 0
-133 -186 0
-133 -185 0
-133 -211 0
-133 -210 0
-133 -236 0
-133 -235 0
-133 -234 0
-133 -233 0
-133 -261 0
-133 -260 0
-133 -286 0
-133 -285 0
-132 -131 0
-132 -161 0
-132 -160 0
-132 -159 0
-132 -158 0
-132 -186 0
-132 -185 0
-132 -211 0
-132 -210 0
-132 -236 0
-132 -235 0
-132 -234 0
-132 -233 0
-132 -261 0
-132 -260 0
-132 -286 0
-132 -285 0
-131 -161 0
-131 -160 0
-131 -159 0
-131 -158 0
-131 -186 0
-131 -185 0
-131 -211 0
-131 -210 0
-131 -236 0
-131 -235 0
-131 -234 0
-131 -233 0
-131 -261 0
-131 -260 0
-131 -286 0
-131 -285 0
-161 -160 0
-161 -159 0
-161 -158 0
-161 -186 0
-161 -185 0
-161 -211 0
-161 -210 0
-161 -236 0
-161 -235 0
-161 -234 0
-161 -233 0
-161 -261 0
-161 -260 0
-161 -286 0
-161 -285 0
-160 -159 0
-160 -158 0
-160 -186 0
-160 -185 0
-160 -211 0
-160 -210 0
-160 -236 0
-160 -235 0
-160 -234 0
-160 -233 0
-160 -261 0
-160 -260 0
-160 -286 0
-160 -285 0
-159 -158 0
-159 -186 0
-159 -185 0
-159 -211 0
-159 -210 0
-159 -236 0
-159 -235 0
-159 -234 0
-159 -233 0
-159 -261 0
-159 -260 0
-159 -286 0
-159 -285 0
-158 -186 0
-158 -185 0
-158 -211 0
-158 -210 0
-158 -236 0
-158 -235 0
-158 -234 0
-158 -233 0
-158 -261 0
-158 -260 0
-158 -286 0
-158 -285 0
-186 -185 0
-186 -211 0
-186 -210 0
-186 -236 0
-186 -235 0
-186 -234 0
-186 -233 0
-186 -261 0
-186 -260 0
-186 -286 0
-186 -285 0
-185 -211 0
-185 -210 0
-185 -236 0
-185 -235 0
-185 -234 0
-185 -233 0
-185 -261 0
-185 -260 0
-185 -286 0
-185 -285 0
-211 -210 0
-211 -236 0
-211 -235 0
-211 -234 0
-211 -233 0
-211 -261 0
-211 -260 0
-211 -286 0
-211 -285 0
-210 -236 0
-210 -235 0
-210 -234 0
-210 -233 0
-210 -261 0
-210 -260 0
-210 -286 0
-210 -285 0
-236 -235 0
-236 -234 0
-236 -233 0
-236 -261 0
-236 -260 0
-236 -286 0
-236 -285 0
-235 -234 0
-235 -233 0
-235 -261 0
-235 -260 0
-235 -286 0
-235 -285 0
-234 -233 0
-234 -261 0
-234 -260 0
-234 -286 0
-234 -285 0
-233 -261 0
-233 -260 0
-233 -286 0
-233 -285 0
-261 -260 0
-261 -286 0
-261 -285 0
-260 -286 0
-260 -285 0
-286 -285 0
-12 -11 0
-12 -10 0
-12 -9 0
-12 -8 0
-12 -7 0
-12 -37 0
-12 -36 0
-12 -35 0
-12 -34 0
-12 -33 0
-12 -32 0
-12 -62 0
-12 -61 0
-12 -87 0
-12 -86 0
-12 -85 0
-12 -84 0
-12 -112 0
-12 -111 0
-12 -110 0
-12 -109 0
-12 -108 0
-12 -107 0
-12 -137 0
-12 -136 0
-12 -135 0
-12 -134 0
-12 -133 0
-12 -132 0
-12 -162 0
-12 -161 0
-12 -160 0
-12 -159 0
-12 -187 0
-12 -186 0
-12 -212 0
-12 -211 0
-12 -237 0
-12 -236 0
-12 -235 0
-12 -234 0
-12 -262 0
-12 -261 0
-12 -287 0
-12 -286 0
-11 -10 0
-11 -9 0
-11 -8 0
-11 -7 0
-11 -37 0
-11 -36 0
-11 -35 0
-11 -34 0
-11 -33 0
-11 -32 0
-11 -62 0
-11 -61 0
-11 -87 0
-11 -86 0
-11 -85 0
-11 -84 0
-11 -112 0
-11 -111 0
-11 -110 0
-11 -109 0
-11 -108 0
-11 -107 0
-11 -137 0
-11 -136 0
-11 -135 0
-11 -134 0
-11 -133 0
-11 -132 0
-11 -162 0
-11 -161 0
-11 -160 0
-11 -159 0
-11 -187 0
-11 -186 0
-11 -212 0
-11 -211 0
-11 -237 0
-11 -236 0
-11 -235 0
-11 -234 0
-11 -262 0
-11 -261 0
-11 -287 0
-11 -286 0
-10 -9 0
-10 -8 0
-10 -7 0
-10 -37 0
-10 -36 0
-10 -35 0
-10 -34 0
-10 -33 0
-10 -32 0
-10 -62 0
-10 -61 0
-10 -87 0
-10 -86 0
-10 -85 0
-10 -84 0
-10 -112 0
-10 -111 0
-10 -110 0
-10 -109 0
-10 -108 0
-10 -107 0
-10 -137 0
-10 -136 0
-10 -135 0
-10 -134 0
-10 -133 0
-10 -132 0
-10 -162 0
-10 -161 0
-10 -160 0
-10 -159 0
-10 -187 0
-10 -186 0
-10 -212 0
-10 -211 0
-10 -237 0
-10 -236 0
-10 -235 0
-10 -234 0
-10 -262 0
-10 -261 0
-10 -287 0
-10 -286 0
-9 -8 0
-9 -7 0
-9 -37 0
-9 -36 0
-9 -35 0
-9 -34 0
-9 -33 0
-9 -32 0
-9 -62 0
-9 -61 0
-9 -87 0
-9 -86 0
-9 -85 0
-9 -84 0
-9 -112 0
-9 -111 0
-9 -110 0
-9 -109 0
-9 -108 0
-9 -107 0
-9 -137 0
-9 -136 0
-9 -135 0
-9 -134 0
-9 -133 0
-9 -132 0
-9 -162 0
-9 -161 0
-9 -160 0
-9 -159 0
-9 -187 0
-9 -186 0
-9 -212 0
-9 -211 0
-9 -237 0
-9 -236 0
-9 -235 0
-9 -234 0
-9 -262 0
-9 -261 0
-9 -287 0
-9 -286 0
-8 -7 0
-8 -37 0
-8 -36 0
-8 -35 0
-8 -34 0
-8 -33 0
-8 -32 0
-8 -62 0
-8 -61 0
-8 -87 0
-8 -86 0
-8 -85 0
-8 -84 0
-8 -112 0
-8 -111 0
-8 -110 0
-8 -109 0
-8 -108 0
-8 -107 0
-8 -137 0
-8 -136 0
-8 -135 0
-8 -134 0
-8 -133 0
-8 -132 0
-8 -162 0
-8 -161 0
-8 -160 0
-8 -159 0
-8 -187 0
-8 -186 0
-8 -212 0
-8 -211 0
-8 -237 0
-8 -236 0
-8 -235 0
-8 -234 0
-8 -262 0
-8 -261 0
-8 -287 0
-8 -286 0
-7 -37 0
-7 -36 0
-7 -35 0
-7 -34 0
-7 -33 0
-7 -32 0
-7 -62 0
-7 -61 0
-7 -87 0
-7 -86 0
-7 -85 0
-7 -84 0
-7 -112 0
-7 -111 0
-7 -110 0
-7 -109 0
-7 -108 0
-7 -107 0
-7 -137 0
-7 -136 0
-7 -135 0
-7 -134 0
-7 -133 0
-7 -132 0
-7 -162 0
-7 -161 0
-7 -160 0
-7 -159 0
-7 -187 0
-7 -186 0
-7 -212 0
-7 -211 0
-7 -237 0
-7 -236 0
-7 -235 0
-7 -234 0
-7 -262 0
-7 -261 0
-7 -287 0
-7 -286 0
-37 -36 0
-37 -35 0
-37 -34 0
-37 -33 0
-37 -32 0
-37 -62 0
-37 -61 0
-37 -87 0
-37 -86 0
-37 -85 0
-37 -84 0
-37 -112 0
-37 -111 0
-37 -110 0
-37 -109 0
-37 -108 0
-37 -107 0
-37 -137 0
-37 -136 0
-37 -135 0
-37 -134 0
-37 -133 0
-37 -132 0
-37 -162 0
-37 -161 0
-37 -160 0
-37 -159 0
-37 -187 0
-37 -186 0
-37 -212 0
-37 -211 0
-37 -237 0
-37 -236 0
-37 -235 0
-37 -234 0
-37 -262 0
-37 -261 0
-37 -287 0
-37 -286 0
-36 -35 0
-36 -34 0
-36 -33 0
-36 -32 0
-36 -62 0
-36 -61 0
-36 -87 0
-36 -86 0
-36 -85 0
-36 -84 0
-36 -112 0
-36 -111 0
-36 -110 0
-36 -109 0
-36 -108 0
-36 -107 0
-36 -137 0
-36 -136 0
-36 -135 0
-36 -134 0
-36 -133 0
-36 -132 0
-36 -162 0
-36 -161 0
-36 -160 0
-36 -159 0
-36 -187 0
-36 -186 0
-36 -212 0
-36 -211 0
-36 -237 0
-36 -236 0
-36 -235 0
-36 -234 0
-36 -262 0
-36 -261 0
-36 -287 0
-36 -286 0
-35 -34 0
-35 -33 0
-35 -32 0
-35 -62 0
-35 -61 0
-35 -87 0
-35 -86 0
-35 -85 0
-35 -84 0
-35 -112 0
-35 -111 0
-35 -110 0
-35 -109 0
-35 -108 0
-35 -107 0
-35 -137 0
-35 -136 0
-35 -135 0
-35 -134 0
-35 -133 0
-35 -132 0
-35 -162 0
-35 -161 0
-35 -160 0
-35 -159 0
-35 -187 0
-35 -186 0
-35 -212 0
-35 -211 0
-35 -237 0
-35 -236 0
-35 -235 0
-35 -234 0
-35 -262 0
-35 -261 0
-35 -287 0
-35 -286 0
-34 -33 0
-34 -32 0
-34 -62 0
-34 -61 0
-34 -87 0
-34 -86 0
-34 -85 0
-34 -84 0
-34 -112 0
-34 -111 0
-34 -110 0
-34 -109 0
-34 -108 0
-34 -107 0
-34 -137 0
-34 -136 0
-34 -135 0
-34 -134 0
-34 -133 0
-34 -132 0
-34 -162 0
-34 -161 0
-34 -160 0
-34 -159 0
-34 -187 0
-34 -186 0
-34 -212 0
-34 -211 0
-34 -237 0
-34 -236 0
-34 -235 0
-34 -234 0
-34 -262 0
-34 -261 0
-34 -287 0
-34 -286 0
-33 -32 0
-33 -62 0
-33 -61 0
-33 -87 0
-33 -86 0
-33 -85 0
-33 -84 0
-33 -112 0
-33 -111 0
-33 -110 0
-33 -109 0
-33 -108 0
-33 -107 0
-33 -137 0
-33 -136 0
-33 -135 0
-33 -134 0
-33 -133 0
-33 -132 0
-33 -162 0
-33 -161 0
-33 -160 0
-33 -159 0
-33 -187 0
-33 -186 0
-33 -212 0
-33 -211 0
-33 -237 0
-33 -236 0
-33 -235 0
-33 -234 0
-33 -262 0
-33 -261 0
-33 -287 0
-33 -286 0
-32 -62 0
-32 -61 0
-32 -87 0
-32 -86 0
-32 -85 0
-32 -84 0
-32 -112 0
-32 -111 0
-32 -110 0
-32 -109 0
-32 -108 0
-32 -107 0
-32 -137 0
-32 -136 0
-32 -135 0
-32 -134 0
-32 -133 0
-32 -132 0
-32 -162 0
-32 -161 0
-32 -160 0
-32 -159 0
-32 -187 0
-32 -186 0
-32 -212 0
-32 -211 0
-32 -237 0
-32 -236 0
-32 -235 0
-32 -234 0
-32 -262 0
-32 -261 0
-32 -287 0
-32 -286 0
-62 -61 0
-62 -87 0
-62 -86 0
-62 -85 0
-62 -84 0
-62 -112 0
-62 -111 0
-62 -110 0
-62 -109 0
-62 -108 0
-62 -107 0
-62 -137 0
-62 -136 0
-62 -135 0
-62 -134 0
-62 -133 0
-62 -132 0
-62 -162 0
-62 -161 0
-62 -160 0
-62 -159 0
-62 -187 0
-62 -186 0
-62 -212 0
-62 -211 0
-62 -237 0
-62 -236 0
-62 -235 0
-62 -234 0
-62 -262 0
-62 -261 0
-62 -287 0
-62 -286 0
-61 -87 0
-61 -86 0
-61 -85 0
-61 -84 0
-61 -112 0
-61 -111 0
-61 -110 0
-61 -109 0
-61 -108 0
-61 -107 0
-61 -137 0
-61 -136 0
-61 -135 0
-61 -134 0
-61 -133 0
-61 -132 0
-61 -162 0
-61 -161 0
-61 -160 0
-61 -159 0
-61 -187 0
-61 -186 0
-61 -212 0
-61 -211 0
-61 -237 0
-61 -236 0
-61 -235 0
-61 -234 0
-61 -262 0
-61 -261 0
-61 -287 0
-61 -286 0
-87 -86 0
-87 -85 0
-87 -84 0
-87 -112 0
-87 -111 0
-87 -110 0
-87 -109 0
-87 -108 0
-87 -107 0
-87 -137 0
-87 -136 0
-87 -135 0
-87 -134 0
-87 -133 0
-87 -132 0
-87 -162 0
-87 -161 0
-87 -160 0
-87 -159 0
-87 -187 0
-87 -186 0
-87 -212 0
-87 -211 0
-87 -237 0
-87 -236 0
-87 -235 0
-87 -234 0
-87 -262 0
-87 -261 0
-87 -287 0
-87 -286 0
-86 -85 0
-86 -84 0
-86 -112 0
-86 -111 0
-86 -110 0
-86 -109 0
-86 -108 0
-86 -107 0
-86 -137 0
-86 -136 0
-86 -135 0
-86 -134 0
-86 -133 0
-86 -132 0
-86 -162 0
-86 -161 0
-86 -160 0
-86 -159 0
-86 -187 0
-86 -186 0
-86 -212 0
-86 -211 0
-86 -237 0
-86 -236 0
-86 -235 0
-86 -234 0
-86 -262 0
-86 -261 0
-86 -287 0
-86 -286 0
-85 -84 0
-85 -112 0
-85 -111 0
-85 -110 0
-85 -109 0
-85 -108 0
-85 -107 0
-85 -137 0
-85 -136 0
-85 -135 0
-85 -134 0
-85 -133 0
-85 -132 0
-85 -162 0
-85 -161 0
-85 -160 0
-85 -159 0
-85 -187 0
-85 -186 0
-85 -212 0
-85 -211 0
-85 -237 0
-85 -236 0
-85 -235 0
-85 -234 0
-85 -262 0
-85 -261 0
-85 -287 0
-85 -286 0
-84 -112 0
-84 -111 0
-84 -110 0
-84 -109 0
-84 -108 0
-84 -107 0
-84 -137 0
-84 -136 0
-84 -135 0
-84 -134 0
-84 -133 0
-84 -132 0
-84 -162 0
-84 -161 0
-84 -160 0
-84 -159 0
-84 -187 0
-84 -186 0
-84 -212 0
-84 -211 0
-84 -237 0
-84 -236 0
-84 -235 0
-84 -234 0
-84 -262 0
-84 -261 0
-84 -287 0
-84 -286 0
-112 -111 0
-112 -110 0
-112 -109 0
-112 -108 0
-112 -107 0
-112 -137 0
-112 -136 0
-112 -135 0
-112 -134 0
-112 -133 0
-112 -132 0
-112 -162 0
-112 -161 0
-112 -160 0
-112 -159 0
-112 -187 0
-112 -186 0
-112 -212 0
-112 -211 0
-112 -237 0
-112 -236 0
-112 -235 0
-112 -234 0
-112 -262 0
-112 -261 0
-112 -287 0
-112 -286 0
-111 -110 0
-111 -109 0
-111 -108 0
-111 -107 0
-111 -137 0
-111 -136 0
-111 -135 0
-111 -134 0
-111 -133 0
-111 -132 0
-111 -162 0
-111 -161 0
-111 -160 0
-111 -159 0
-111 -187 0
-111 -186 0
-111 -212 0
-111 -211 0
-111 -237 0
-111 -236 0
-111 -235 0
-111 -234 0
-111 -262 0
-111 -261 0
-111 -287 0
-111 -286 0
-110 -109 0
-110 -108 0
-110 -107 0
-110 -137 0
-110 -136 0
-110 -135 0
-110 -134 0
-110 -133 0
-110 -132 0
-110 -162 0
-110 -161 0
-110 -160 0
-110 -159 0
-110 -187 0
-110 -186 0
-110 -212 0
-110 -211 0
-110 -237 0
-110 -236 0
-110 -235 0
-110 -234 0
-110 -262 0
-110 -261 0
-110 -287 0
-110 -286 0
-109 -108 0
-109 -107 0
-109 -137 0
-109 -136 0
-109 -135 0
-109 -134 0
-109 -133 0
-109 -132 0
-109 -162 0
-109 -161 0
-109 -160 0
-109 -159 0
-109 -187 0
-109 -186 0
-109 -212 0
-109 -211 0
-109 -237 0
-109 -236 0
-109 -235 0
-109 -234 0
-109 -262 0
-109 -261 0
-109 -287 0
-109 -286 0
-108 -107 0
-108 -137 0
-108 -136 0
-108 -135 0
-108 -134 0
-108 -133 0
-108 -132 0
-108 -162 0
-108 -161 0
-108 -160 0
-108 -159 0
-108 -187 0
-108 -186 0
-108 -212 0
-108 -211 0
-108 -237 0
-108 -236 0
-108 -235 0
-108 -234 0
-108 -262 0
-108 -261 0
-108 -287 0
-108 -286 0
-107 -137 0
-107 -136 0
-107 -135 0
-107 -134 0
-107 -133 0
-107 -132 0
-107 -162 0
-107 -161 0
-107 -160 0
-107 -159 0
-107 -187 0
-107 -186 0
-107 -212 0
-107 -211 0
-107 -237 0
-107 -236 0
-107 -235 0
-107 -234 0
-107 -262 0
-107 -261 0
-107 -287 0
-107 -286 0
-137 -136 0
-137 -135 0
-137 -134 0
-137 -133 0
-137 -132 0
-137 -162 0
-137 -161 0
-137 -160 0
-137 -159 0
-137 -187 0
-137 -186 0
-137 -212 0
-137 -211 0
-137 -237 0
-137 -236 0
-137 -235 0
-137 -234 0
-137 -262 0
-137 -261 0
-137 -287 0
-137 -286 0
-136 -135 0
-136 -134 0
-136 -133 0
-136 -132 0
-136 -162 0
-136 -161 0
-136 -160 0
-136 -159 0
-136 -187 0
-136 -186 0
-136 -212 0
-136 -211 0
-136 -237 0
-136 -236 0
-136 -235 0
-136 -234 0
-136 -262 0
-136 -261 0
-136 -287 0
-136 -286 0
-135 -134 0
-135 -133 0
-135 -132 0
-135 -162 0
-135 -161 0
-135 -160 0
-135 -159 0
-135 -187 0
-135 -186 0
-135 -212 0
-135 -211 0
-135 -237 0
-135 -236 0
-135 -235 0
-135 -234 0
-135 -262 0
-135 -261 0
-135 -287 0
-135 -286 0
-134 -133 0
-134 -132 0
-134 -162 0
-134 -161 0
-134 -160 0
-134 -159 0
-134 -187 0
-134 -186 0
-134 -212 0
-134 -211 0
-134 -237 0
-134 -236 0
-134 -235 0
-134 -234 0
-134 -262 0
-134 -261 0
-134 -287 0
-134 -286 0
-133 -132 0
-133 -162 0
-133 -161 0
-133 -160 0
-133 -159 0
-133 -187 0
-133 -186 0
-133 -212 0
-133 -211 0
-133 -237 0
-133 -236 0
-133 -235 0
-133 -234 0
-133 -262 0
-133 -261 0
-133 -287 0
-133 -286 0
-132 -162 0
-132 -161 0
-132 -160 0
-132 -159 0
-132 -187 0
-132 -186 0
-132 -212 0
-132 -211 0
-132 -237 0
-132 -236 0
-132 -235 0
-132 -234 0
-132 -262 0
-132 -261 0
-132 -287 0
-132 -286 0
-162 -161 0
-162 -160 0
-162 -159 0
-162 -187 0
-162 -186 0
-162 -212 0
-162 -211 0
-162 -237 0
-162 -236 0
-162 -235 0
-162 -234 0
-162 -262 0
-162 -261 0
-162 -287 0
-162 -286 0
-161 -160 0
-161 -159 0
-161 -187 0
-161 -186 0
-161 -212 0
-161 -211 0
-161 -237 0
-161 -236 0
-161 -235 0
-161 -234 0
-161 -262 0
-161 -261 0
-161 -287 0
-161 -286 0
-160 -159 0
-160 -187 0
-160 -186 0
-160 -212 0
-160 -211 0
-160 -237 0
-160 -236 0
-160 -235 0
-160 -234 0
-160 -262 0
-160 -261 0
-160 -287 0
-160 -286 0
-159 -187 0
-159 -186 0
-159 -212 0
-159 -211 0
-159 -237 0
-159 -236 0
-159 -235 0
-159 -234 0
-159 -262 0
-159 -261 0
-159 -287 0
-159 -286 0
-187 -186 0
-187 -212 0
-187 -211 0
-187 -237 0
-187 -236 0
-187 -235 0
-187 -234 0
-187 -262 0
-187 -261 0
-187 -287 0
-187 -286 0
-186 -212 0
-186 -211 0
-186 -237 0
-186 -236 0
-186 -235 0
-186 -234 0
-186 -262 0
-186 -261 0
-186 -287 0
-186 -286 0
-212 -211 0
-212 -237 0
-212 -236 0
-212 -235 0
-212 -234 0
-212 -262 0
-212 -261 0
-212 -287 0
-212 -286 0
-211 -237 0
-211 -236 0
-211 -235 0
-211 -234 0
-211 -262 0
-211 -261 0
-211 -287 0
-211 -286 0
-237 -236 0
-237 -235 0
-237 -234 0
-237 -262 0
-237 -261 0
-237 -287 0
-237 -286 0
-236 -235 0
-236 -234 0
-236 -262 0
-236 -261 0
-236 -287 0
-236 -286 0
-235 -234 0
-235 -262 0
-235 -261 0
-235 -287 0
-235 -286 0
-234 -262 0
-234 -261 0
-234 -287 0
-234 -286 0
-262 -261 0
-262 -287 0
-262 -286 0
-261 -287 0
-261 -286 0
-287 -286 0
-13 -12 0
-13 -11 0
-13 -10 0
-13 -9 0
-13 -8 0
-13 -38 0
-13 -37 0
-13 -36 0
-13 -35 0
-13 -34 0
-13 -33 0
-13 -63 0
-13 -62 0
-13 -88 0
-13 -87 0
-13 -86 0
-13 -85 0
-13 -113 0
-13 -112 0
-13 -111 0
-13 -110 0
-13 -109 0
-13 -108 0
-13 -138 0
-13 -137 0
-13 -136 0
-13 -135 0
-13 -134 0
-13 -133 0
-13 -163 0
-13 -162 0
-13 -161 0
-13 -160 0
-13 -188 0
-13 -187 0
-13 -213 0
-13 -212 0
-13 -238 0
-13 -237 0
-13 -236 0
-13 -235 0
-13 -263 0
-13 -262 0
-13 -288 0
-13 -287 0
-12 -11 0
-12 -10 0
-12 -9 0
-12 -8 0
-12 -38 0
-12 -37 0
-12 -36 0
-12 -35 0
-12 -34 0
-12 -33 0
-12 -63 0
-12 -62 0
-12 -88 0
-12 -87 0
-12 -86 0
-12 -85 0
-12 -113 0
-12 -112 0
-12 -111 0
-12 -110 0
-12 -109 0
-12 -108 0
-12 -138 0
-12 -137 0
-12 -136 0
-12 -135 0
-12 -134 0
-12 -133 0
-12 -163 0
-12 -162 0
-12 -161 0
-12 -160 0
-12 -188 0
-12 -187 0
-12 -213 0
-12 -212 0
-12 -238 0
-12 -237 0
-12 -236 0
-12 -235 0
-12 -263 0
-12 -262 0
-12 -288 0
-12 -287 0
-11 -10 0
-11 -9 0
-11 -8 0
-11 -38 0
-11 -37 0
-11 -36 0
-11 -35 0
-11 -34 0
-11 -33 0
-11 -63 0
-11 -62 0
-11 -88 0
-11 -87 0
-11 -86 0
-11 -85 0
-11 -113 0
-11 -112 0
-11 -111 0
-11 -110 0
-11 -109 0
-11 -108 0
-11 -138 0
-11 -137 0
-11 -136 0
-11 -135 0
-11 -134 0
-11 -133 0
-11 -163 0
-11 -162 0
-11 -161 0
-11 -160 0
-11 -188 0
-11 -187 0
-11 -213 0
-11 -212 0
-11 -238 0
-11 -237 0
-11 -236 0
-11 -235 0
-11 -263 0
-11 -262 0
-11 -288 0
-11 -287 0
-10 -9 0
-10 -8 0
-10 -38 0
-10 -37 0
-10 -36 0
-10 -35 0
-10 -34 0
-10 -33 0
-10 -63 0
-10 -62 0
-10 -88 0
-10 -87 0
-10 -86 0
-10 -85 0
-10 -113 0
-10 -112 0
-10 -111 0
-10 -110 0
-10 -109 0
-10 -108 0
-10 -138 0
-10 -137 0
-10 -136 0
-10 -135 0
-10 -134 0
-10 -133 0
-10 -163 0
-10 -162 0
-10 -161 0
-10 -160 0
-10 -188 0
-10 -187 0
-10 -213 0
-10 -212 0
-10 -238 0
-10 -237 0
-10 -236 0
-10 -235 0
-10 -263 0
-10 -262 0
-10 -288 0
-10 -287 0
-9 -8 0
-9 -38 0
-9 -37 0
-9 -36 0
-9 -35 0
-9 -34 0
-9 -33 0
-9 -63 0
-9 -62 0
-9 -88 0
-9 -87 0
-9 -86 0
-9 -85 0
-9 -113 0
-9 -112 0
-9 -111 0
-9 -110 0
-9 -109 0
-9 -108 0
-9 -138 0
-9 -137 0
-9 -136 0
-9 -135 0
-9 -134 0
-9 -133 0
-9 -163 0
-9 -162 0
-9 -161 0
-9 -160 0
-9 -188 0
-9 -187 0
-9 -213 0
-9 -212 0
-9 -238 0
-9 -237 0
-9 -236 0
-9 -235 0
-9 -263 0
-9 -262 0
-9 -288 0
-9 -287 0
-8 -38 0
-8 -37 0
-8 -36 0
-8 -35 0
-8 -34 0
-8 -33 0
-8 -63 0
-8 -62 0
-8 -88 0
-8 -87 0
-8 -86 0
-8 -85 0
-8 -113 0
-8 -112 0
-8 -111 0
-8 -110 0
-8 -109 0
-8 -108 0
-8 -138 0
-8 -137 0
-8 -136 0
-8 -135 0
-8 -134 0
-8 -133 0
-8 -163 0
-8 -162 0
-8 -161 0
-8 -160 0
-8 -188 0
-8 -187 0
-8 -213 0
-8 -212 0
-8 -238 0
-8 -237 0
-8 -236 0
-8 -235 0
-8 -263 0
-8 -262 0
-8 -288 0
-8 -287 0
-38 -37 0
-38 -36 0
-38 -35 0
-38 -34 0
-38 -33 0
-38 -63 0
-38 -62 0
-38 -88 0
-38 -87 0
-38 -86 0
-38 -85 0
-38 -113 0
-38 -112 0
-38 -111 0
-38 -110 0
-38 -109 0
-38 -108 0
-38 -138 0
-38 -137 0
-38 -136 0
-38 -135 0
-38 -134 0
-38 -133 0
-38 -163 0
-38 -162 0
-38 -161 0
-38 -160 0
-38 -188 0
-38 -187 0
-38 -213 0
-38 -212 0
-38 -238 0
-38 -237 0
-38 -236 0
-38 -235 0
-38 -263 0
-38 -262 0
-38 -288 0
-38 -287 0
-37 -36 0
-37 -35 0
-37 -34 0
-37 -33 0
-37 -63 0
-37 -62 0
-37 -88 0
-37 -87 0
-37 -86 0
-37 -85 0
-37 -113 0
-37 -112 0
-37 -111 0
-37 -110 0
-37 -109 0
-37 -108 0
-37 -138 0
-37 -137 0
-37 -136 0
-37 -135 0
-37 -134 0
-37 -133 0
-37 -163 0
-37 -162 0
-37 -161 0
-37 -160 0
-37 -188 0
-37 -187 0
-37 -213 0
-37 -212 0
-37 -238 0
-37 -237 0
-37 -236 0
-37 -235 0
-37 -263 0
-37 -262 0
-37 -288 0
-37 -287 0
-36 -35 0
-36 -34 0
-36 -33 0
-36 -63 0
-36 -62 0
-36 -88 0
-36 -87 0
-36 -86 0
-36 -85 0
-36 -113 0
-36 -112 0
-36 -111 0
-36 -110 0
-36 -109 0
-36 -108 0
-36 -138 0
-36 -137 0
-36 -136 0
-36 -135 0
-36 -134 0
-36 -133 0
-36 -163 0
-36 -162 0
-36 -161 0
-36 -160 0
-36 -188 0
-36 -187 0
-36 -213 0
-36 -212 0
-36 -238 0
-36 -237 0
-36 -236 0
-36 -235 0
-36 -263 0
-36 -262 0
-36 -288 0
-36 -287 0
-35 -34 0
-35 -33 0
-35 -63 0
-35 -62 0
-35 -88 0
-35 -87 0
-35 -86 0
-35 -85 0
-35 -113 0
-35 -112 0
-35 -111 0
-35 -110 0
-35 -109 0
-35 -108 0
-35 -138 0
-35 -137 0
-35 -136 0
-35 -135 0
-35 -134 0
-35 -133 0
-35 -163 0
-35 -162 0
-35 -161 0
-35 -160 0
-35 -188 0
-35 -187 0
-35 -213 0
-35 -212 0
-35 -238 0
-35 -237 0
-35 -236 0
-35 -235 0
-35 -263 0
-35 -262 0
-35 -288 0
-35 -287 0
-34 -33 0
-34 -63 0
-34 -62 0
-34 -88 0
-34 -87 0
-34 -86 0
-34 -85 0
-34 -113 0
-34 -112 0
-34 -111 0
-34 -110 0
-34 -109 0
-34 -108 0
-34 -138 0
-34 -137 0
-34 -136 0
-34 -135 0
-34 -134 0
-34 -133 0
-34 -163 0
-34 -162 0
-34 -161 0
-34 -160 0
-34 -188 0
-34 -187 0
-34 -213 0
-34 -212 0
-34 -238 0
-34 -237 0
-34 -236 0
-34 -235 0
-34 -263 0
-34 -262 0
-34 -288 0
-34 -287 0
-33 -63 0
-33 -62 0
-33 -88 0
-33 -87 0
-33 -86 0
-33 -85 0
-33 -113 0
-33 -112 0
-33 -111 0
-33 -110 0
-33 -109 0
-33 -108 0
-33 -138 0
-33 -137 0
-33 -136 0
-33 -135 0
-33 -134 0
-33 -133 0
-33 -163 0
-33 -162 0
-33 -161 0
-33 -160 0
-33 -188 0
-33 -187 0
-33 -213 0
-33 -212 0
-33 -238 0
-33 -237 0
-33 -236 0
-33 -235 0
-33 -263 0
-33 -262 0
-33 -288 0
-33 -287 0
-63 -62 0
-63 -88 0
-63 -87 0
-63 -86 0
-63 -85 0
-63 -113 0
-63 -112 0
-63 -111 0
-63 -110 0
-63 -109 0
-63 -108 0
-63 -138 0
-63 -137 0
-63 -136 0
-63 -135 0
-63 -134 0
-63 -133 0
-63 -163 0
-63 -162 0
-63 -161 0
-63 -160 0
-63 -188 0
-63 -187 0
-63 -213 0
-63 -212 0
-63 -238 0
-63 -237 0
-63 -236 0
-63 -235 0
-63 -263 0
-63 -262 0
-63 -288 0
-63 -287 0
-62 -88 0
-62 -87 0
-62 -86 0
-62 -85 0
-62 -113 0
-62 -112 0
-62 -111 0
-62 -110 0
-62 -109 0
-62 -108 0
-62 -138 0
-62 -137 0
-62 -136 0
-62 -135 0
-62 -134 0
-62 -133 0
-62 -163 0
-62 -162 0
-62 -161 0
-62 -160 0
-62 -188 0
-62 -187 0
-62 -213 0
-62 -212 0
-62 -238 0
-62 -237 0
-62 -236 0
-62 -235 0
-62 -263 0
-62 -262 0
-62 -288 0
-62 -287 0
-88 -87 0
-88 -86 0
-88 -85 0
-88 -113 0
-88 -112 0
-88 -111 0
-88 -110 0
-88 -109 0
-88 -108 0
-88 -138 0
-88 -137 0
-88 -136 0
-88 -135 0
-88 -134 0
-88 -133 0
-88 -163 0
-88 -162 0
-88 -161 0
-88 -160 0
-88 -188 0
-88 -187 0
-88 -213 0
-88 -212 0
-88 -238 0
-88 -237 0
-88 -236 0
-88 -235 0
-88 -263 0
-88 -262 0
-88 -288 0
-88 -287 0
-87 -86 0
-87 -85 0
-87 -113 0
-87 -112 0
-87 -111 0
-87 -110 0
-87 -109 0
-87 -108 0
-87 -138 0
-87 -137 0
-87 -136 0
-87 -135 0
-87 -134 0
-87 -133 0
-87 -163 0
-87 -162 0
-87 -161 0
-87 -160 0
-87 -188 0
-87 -187 0
-87 -213 0
-87 -212 0
-87 -238 0
-87 -237 0
-87 -236 0
-87 -235 0
-87 -263 0
-87 -262 0
-87 -288 0
-87 -287 0
-86 -85 0
-86 -113 0
-86 -112 0
-86 -111 0
-86 -110 0
-86 -109 0
-86 -108 0
-86 -138 0
-86 -137 0
-86 -136 0
-86 -135 0
-86 -134 0
-86 -133 0
-86 -163 0
-86 -162 0
-86 -161 0
-86 -160 0
-86 -188 0
-86 -187 0
-86 -213 0
-86 -212 0
-86 -238 0
-86 -237 0
-86 -236 0
-86 -235 0
-86 -263 0
-86 -262 0
-86 -288 0
-86 -287 0
-85 -113 0
-85 -112 0
-85 -111 0
-85 -110 0
-85 -109 0
-85 -108 0
-85 -138 0
-85 -137 0
-85 -136 0
-85 -135 0
-85 -134 0
-85 -133 0
-85 -163 0
-85 -162 0
-85 -161 0
-85 -160 0
-85 -188 0
-85 -187 0
-85 -213 0
-85 -212 0
-85 -238 0
-85 -237 0
-85 -236 0
-85 -235 0
-85 -263 0
-85 -262 0
-85 -288 0
-85 -287 0
-113 -112 0
-113 -111 0
-113 -110 0
-113 -109 0
-113 -108 0
-113 -138 0
-113 -137 0
-113 -136 0
-113 -135 0
-113 -134 0
-113 -133 0
-113 -163 0
-113 -162 0
-113 -161 0
-113 -160 0
-113 -188 0
-113 -187 0
-113 -213 0
-113 -212 0
-113 -238 0
-113 -237 0
-113 -236 0
-113 -235 0
-113 -263 0
-113 -262 0
-113 -288 0
-113 -287 0
-112 -111 0
-112 -110 0
-112 -109 0
-112 -108 0
-112 -138 0
-112 -137 0
-112 -136 0
-112 -135 0
-112 -134 0
-112 -133 0
-112 -163 0
-112 -162 0
-112 -161 0
-112 -160 0
-112 -188 0
-112 -187 0
-112 -213 0
-112 -212 0
-112 -238 0
-112 -237 0
-112 -236 0
-112 -235 0
-112 -263 0
-112 -262 0
-112 -288 0
-112 -287 0
-111 -110 0
-111 -109 0
-111 -108 0
-111 -138 0
-111 -137 0
-111 -136 0
-111 -135 0
-111 -134 0
-111 -133 0
-111 -163 0
-111 -162 0
-111 -161 0
-111 -160 0
-111 -188 0
-111 -187 0
-111 -213 0
-111 -212 0
-111 -238 0
-111 -237 0
-111 -236 0
-111 -235 0
-111 -263 0
-111 -262 0
-111 -288 0
-111 -287 0
-110 -109 0
-110 -108 0
-110 -138 0
-110 -137 0
-110 -136 0
-110 -135 0
-110 -134 0
-110 -133 0
-110 -163 0
-110 -162 0
-110 -161 0
-110 -160 0
-110 -188 0
-110 -187 0
-110 -213 0
-110 -212 0
-110 -238 0
-110 -237 0
-110 -236 0
-110 -235 0
-110 -263 0
-110 -262 0
-110 -288 0
-110 -287 0
-109 -108 0
-109 -138 0
-109 -137 0
-109 -136 0
-109 -135 0
-109 -134 0
-109 -133 0
-109 -163 0
-109 -162 0
-109 -161 0
-109 -160 0
-109 -188 0
-109 -187 0
-109 -213 0
-109 -212 0
-109 -238 0
-109 -237 0
-109 -236 0
-109 -235 0
-109 -263 0
-109 -262 0
-109 -288 0
-109 -287 0
-108 -138 0
-108 -137 0
-108 -136 0
-108 -135 0
-108 -134 0
-108 -133 0
-108 -163 0
-108 -162 0
-108 -161 0
-108 -160 0
-108 -188 0
-108 -187 0
-108 -213 0
-108 -212 0
-108 -238 0
-108 -237 0
-108 -236 0
-108 -235 0
-108 -263 0
-108 -262 0
-108 -288 0
-108 -287 0
-138 -137 0
-138 -136 0
-138 -135 0
-138 -134 0
-138 -133 0
-138 -163 0
-138 -162 0
-138 -161 0
-138 -160 0
-138 -188 0
-138 -187 0
-138 -213 0
-138 -212 0
-138 -238 0
-138 -237 0
-138 -236 0
-138 -235 0
-138 -263 0
-138 -262 0
-138 -288 0
-138 -287 0
-137 -136 0
-137 -135 0
-137 -134 0
-137 -133 0
-137 -163 0
-137 -162 0
-137 -161 0
-137 -160 0
-137 -188 0
-137 -187 0
-137 -213 0
-137 -212 0
-137 -238 0
-137 -237 0
-137 -236 0
-137 -235 0
-137 -263 0
-137 -262 0
-137 -288 0
-137 -287 0
-136 -135 0
-136 -134 0
-136 -133 0
-136 -163 0
-136 -162 0
-136 -161 0
-136 -160 0
-136 -188 0
-136 -187 0
-136 -213 0
-136 -212 0
-136 -238 0
-136 -237 0
-136 -236 0
-136 -235 0
-136 -263 0
-136 -262 0
-136 -288 0
-136 -287 0
-135 -134 0
-135 -133 0
-135 -163 0
-135 -162 0
-135 -161 0
-135 -160 0
-135 -188 0
-135 -187 0
-135 -213 0
-135 -212 0
-135 -238 0
-135 -237 0
-135 -236 0
-135 -235 0
-135 -263 0
-135 -262 0
-135 -288 0
-135 -287 0
-134 -133 0
-134 -163 0
-134 -162 0
-134 -161 0
-134 -160 0
-134 -188 0
-134 -187 0
-134 -213 0
-134 -212 0
-134 -238 0
-134 -237 0
-134 -236 0
-134 -235 0
-134 -263 0
-134 -262 0
-134 -288 0
-134 -287 0
-133 -163 0
-133 -162 0
-133 -161 0
-133 -160 0
-133 -188 0
-133 -187 0
-133 -213 0
-133 -212 0
-133 -238 0
-133 -237 0
-133 -236 0
-133 -235 0
-133 -263 0
-133 -262 0
-133 -288 0
-133 -287 0
-163 -162 0
-163 -161 0
-163 -160 0
-163 -188 0
-163 -187 0
-163 -213 0
-163 -212 0
-163 -238 0
-163 -237 0
-163 -236 0
-163 -235 0
-163 -263 0
-163 -262 0
-163 -288 0
-163 -287 0
-162 -161 0
-162 -160 0
-162 -188 0
-162 -187 0
-162 -213 0
-162 -212 0
-162 -238 0
-162 -237 0
-162 -236 0
-162 -235 0
-162 -263 0
-162 -262 0
-162 -288 0
-162 -287 0
-161 -160 0
-161 -188 0
-161 -187 0
-161 -213 0
-161 -212 0
-161 -238 0
-161 -237 0
-161 -236 0
-161 -235 0
-161 -263 0
-161 -262 0
-161 -288 0
-161 -287 0
-160 -188 0
-160 -187 0
-160 -213 0
-160 -212 0
-160 -238 0
-160 -237 0
-160 -236 0
-160 -235 0
-160 -263 0
-160 -262 0
-160 -288 0
-160 -287 0
-188 -187 0
-188 -213 0
-188 -212 0
-188 -238 0
-188 -237 0
-188 -236 0
-188 -235 0
-188 -263 0
-188 -262 0
-188 -288 0
-188 -287 0
-187 -213 0
-187 -212 0
-187 -238 0
-187 -237 0
-187 -236 0
-187 -235 0
-187 -263 0
-187 -262 0
-187 -288 0
-187 -287 0
-213 -212 0
-213 -238 0
-213 -237 0
-213 -236 0
-213 -235 0
-213 -263 0
-213 -262 0
-213 -288 0
-213 -287 0
-212 -238 0
-212 -237 0
-212 -236 0
-212 -235 0
-212 -263 0
-212 -262 0
-212 -288 0
-212 -287 0
-238 -237 0
-238 -236 0
-238 -235 0
-238 -263 0
-238 -262 0
-238 -288 0
-238 -287 0
-237 -236 0
-237 -235 0
-237 -263 0
-237 -262 0
-237 -288 0
-237 -287 0
-236 -235 0
-236 -263 0
-236 -262 0
-236 -288 0
-236 -287 0
-235 -263 0
-235 -262 0
-235 -288 0
-235 -287 0
-263 -262 0
-263 -288 0
-263 -287 0
-262 -288 0
-262 -287 0
-288 -287 0
-14 -13 0
-14 -12 0
-14 -11 0
-14 -10 0
-14 -9 0
-14 -39 0
-14 -38 0
-14 -37 0
-14 -36 0
-14 -35 0
-14 -34 0
-14 -64 0
-14 -63 0
-14 -89 0
-14 -88 0
-14 -87 0
-14 -86 0
-14 -114 0
-14 -113 0
-14 -112 0
-14 -111 0
-14 -110 0
-14 -109 0
-14 -139 0
-14 -138 0
-14 -137 0
-14 -136 0
-14 -135 0
-14 -134 0
-14 -164 0
-14 -163 0
-14 -162 0
-14 -161 0
-14 -189 0
-14 -188 0
-14 -214 0
-14 -213 0
-14 -239 0
-14 -238 0
-14 -237 0
-14 -236 0
-14 -264 0
-14 -263 0
-14 -289 0
-14 -288 0
-13 -12 0
-13 -11 0
-13 -10 0
-13 -9 0
-13 -39 0
-13 -38 0
-13 -37 0
-13 -36 0
-13 -35 0
-13 -34 0
-13 -64 0
-13 -63 0
-13 -89 0
-13 -88 0
-13 -87 0
-13 -86 0
-13 -114 0
-13 -113 0
-13 -112 0
-13 -111 0
-13 -110 0
-13 -109 0
-13 -139 0
-13 -138 0
-13 -137 0
-13 -136 0
-13 -135 0
-13 -134 0
-13 -164 0
-13 -163 0
-13 -162 0
-13 -161 0
-13 -189 0
-13 -188 0
-13 -214 0
-13 -213 0
-13 -239 0
-13 -238 0
-13 -237 0
-13 -236 0
-13 -264 0
-13 -263 0
-13 -289 0
-13 -288 0
-12 -11 0
-12 -10 0
-12 -9 0
-12 -39 0
-12 -38 0
-12 -37 0
-12 -36 0
-12 -35 0
-12 -34 0
-12 -64 0
-12 -63 0
-12 -89 0
-12 -88 0
-12 -87 0
-12 -86 0
-12 -114 0
-12 -113 0
-12 -112 0
-12 -111 0
-12 -110 0
-12 -109 0
-12 -139 0
-12 -138 0
-12 -137 0
-12 -136 0
-12 -135 0
-12 -134 0
-12 -164 0
-12 -163 0
-12 -162 0
-12 -161 0
-12 -189 0
-12 -188 0
-12 -214 0
-12 -213 0
-12 -239 0
-12 -238 0
-12 -237 0
-12 -236 0
-12 -264 0
-12 -263 0
-12 -289 0
-12 -288 0
-11 -10 0
-11 -9 0
-11 -39 0
-11 -38 0
-11 -37 0
-11 -36 0
-11 -35 0
-11 -34 0
-11 -64 0
-11 -63 0
-11 -89 0
-11 -88 0
-11 -87 0
-11 -86 0
-11 -114 0
-11 -113 0
-11 -112 0
-11 -111 0
-11 -110 0
-11 -109 0
-11 -139 0
-11 -138 0
-11 -137 0
-11 -136 0
-11 -135 0
-11 -134 0
-11 -164 0
-11 -163 0
-11 -162 0
-11 -161 0
-11 -189 0
-11 -188 0
-11 -214 0
-11 -213 0
-11 -239 0
-11 -238 0
-11 -237 0
-11 -236 0
-11 -264 0
-11 -263 0
-11 -289 0
-11 -288 0
-10 -9 0
-10 -39 0
-10 -38 0
-10 -37 0
-10 -36 0
-10 -35 0
-10 -34 0
-10 -64 0
-10 -63 0
-10 -89 0
-10 -88 0
-10 -87 0
-10 -86 0
-10 -114 0
-10 -113 0
-10 -112 0
-10 -111 0
-10 -110 0
-10 -109 0
-10 -139 0
-10 -138 0
-10 -137 0
-10 -136 0
-10 -135 0
-10 -134 0
-10 -164 0
-10 -163 0
-10 -162 0
-10 -161 0
-10 -189 0
-10 -188 0
-10 -214 0
-10 -213 0
-10 -239 0
-10 -238 0
-10 -237 0
-10 -236 0
-10 -264 0
-10 -263 0
-10 -289 0
-10 -288 0
-9 -39 0
-9 -38 0
-9 -37 0
-9 -36 0
-9 -35 0
-9 -34 0
-9 -64 0
-9 -63 0
-9 -89 0
-9 -88 0
-9 -87 0
-9 -86 0
-9 -114 0
-9 -113 0
-9 -112 0
-9 -111 0
-9 -110 0
-9 -109 0
-9 -139 0
-9 -138 0
-9 -137 0
-9 -136 0
-9 -135 0
-9 -134 0
-9 -164 0
-9 -163 0
-9 -162 0
-9 -161 0
-9 -189 0
-9 -188 0
-9 -214 0
-9 -213 0
-9 -239 0
-9 -238 0
-9 -237 0
-9 -236 0
-9 -264 0
-9 -263 0
-9 -289 0
-9 -288 0
-39 -38 0
-39 -37 0
-39 -36 0
-39 -35 0
-39 -34 0
-39 -64 0
-39 -63 0
-39 -89 0
-39 -88 0
-39 -87 0
-39 -86 0
-39 -114 0
-39 -113 0
-39 -112 0
-39 -111 0
-39 -110 0
-39 -109 0
-39 -139 0
-39 -138 0
-39 -137 0
-39 -136 0
-39 -135 0
-39 -134 0
-39 -164 0
-39 -163 0
-39 -162 0
-39 -161 0
-39 -189 0
-39 -188 0
-39 -214 0
-39 -213 0
-39 -239 0
-39 -238 0
-39 -237 0
-39 -236 0
-39 -264 0
-39 -263 0
-39 -289 0
-39 -288 0
-38 -37 0
-38 -36 0
-38 -35 0
-38 -34 0
-38 -64 0
-38 -63 0
-38 -89 0
-38 -88 0
-38 -87 0
-38 -86 0
-38 -114 0
-38 -113 0
-38 -112 0
-38 -111 0
-38 -110 0
-38 -109 0
-38 -139 0
-38 -138 0
-38 -137 0
-38 -136 0
-38 -135 0
-38 -134 0
-38 -164 0
-38 -163 0
-38 -162 0
-38 -161 0
-38 -189 0
-38 -188 0
-38 -214 0
-38 -213 0
-38 -239 0
-38 -238 0
-38 -237 0
-38 -236 0
-38 -264 0
-38 -263 0
-38 -289 0
-38 -288 0
-37 -36 0
-37 -35 0
-37 -34 0
-37 -64 0
-37 -63 0
-37 -89 0
-37 -88 0
-37 -87 0
-37 -86 0
-37 -114 0
-37 -113 0
-37 -112 0
-37 -111 0
-37 -110 0
-37 -109 0
-37 -139 0
-37 -138 0
-37 -137 0
-37 -136 0
-37 -135 0
-37 -134 0
-37 -164 0
-37 -163 0
-37 -162 0
-37 -161 0
-37 -189 0
-37 -188 0
-37 -214 0
-37 -213 0
-37 -239 0
-37 -238 0
-37 -237 0
-37 -236 0
-37 -264 0
-37 -263 0
-37 -289 0
-37 -288 0
-36 -35 0
-36 -34 0
-36 -64 0
-36 -63 0
-36 -89 0
-36 -88 0
-36 -87 0
-36 -86 0
-36 -114 0
-36 -113 0
-36 -112 0
-36 -111 0
-36 -110 0
-36 -109 0
-36 -139 0
-36 -138 0
-36 -137 0
-36 -136 0
-36 -135 0
-36 -134 0
-36 -164 0
-36 -163 0
-36 -162 0
-36 -161 0
-36 -189 0
-36 -188 0
-36 -214 0
-36 -213 0
-36 -239 0
-36 -238 0
-36 -237 0
-36 -236 0
-36 -264 0
-36 -263 0
-36 -289 0
-36 -288 0
-35 -34 0
-35 -64 0
-35 -63 0
-35 -89 0
-35 -88 0
-35 -87 0
-35 -86 0
-35 -114 0
-35 -113 0
-35 -112 0
-35 -111 0
-35 -110 0
-35 -109 0
-35 -139 0
-35 -138 0
-35 -137 0
-35 -136 0
-35 -135 0
-35 -134 0
-35 -164 0
-35 -163 0
-35 -162 0
-35 -161 0
-35 -189 0
-35 -188 0
-35 -214 0
-35 -213 0
-35 -239 0
-35 -238 0
-35 -237 0
-35 -236 0
-35 -264 0
-35 -263 0
-35 -289 0
-35 -288 0
-34 -64 0
-34 -63 0
-34 -89 0
-34 -88 0
-34 -87 0
-34 -86 0
-34 -114 0
-34 -113 0
-34 -112 0
-34 -111 0
-34 -110 0
-34 -109 0
-34 -139 0
-34 -138 0
-34 -137 0
-34 -136 0
-34 -135 0
-34 -134 0
-34 -164 0
-34 -163 0
-34 -162 0
-34 -161 0
-34 -189 0
-34 -188 0
-34 -214 0
-34 -213 0
-34 -239 0
-34 -238 0
-34 -237 0
-34 -236 0
-34 -264 0
-34 -263 0
-34 -289 0
-34 -288 0
-64 -63 0
-64 -89 0
-64 -88 0
-64 -87 0
-64 -86 0
-64 -114 0
-64 -113 0
-64 -112 0
-64 -111 0
-64 -110 0
-64 -109 0
-64 -139 0
-64 -138 0
-64 -137 0
-64 -136 0
-64 -135 0
-64 -134 0
-64 -164 0
-64 -163 0
-64 -162 0
-64 -161 0
-64 -189 0
-64 -188 0
-64 -214 0
-64 -213 0
-64 -239 0
-64 -238 0
-64 -237 0
-64 -236 0
-64 -264 0
-64 -263 0
-64 -289 0
-64 -288 0
-63 -89 0
-63 -88 0
-63 -87 0
-63 -86 0
-63 -114 0
-63 -113 0
-63 -112 0
-63 -111 0
-63 -110 0
-63 -109 0
-63 -139 0
-63 -138 0
-63 -137 0
-63 -136 0
-63 -135 0
-63 -134 0
-63 -164 0
-63 -163 0
-63 -162 0
-63 -161 0
-63 -189 0
-63 -188 0
-63 -214 0
-63 -213 0
-63 -239 0
-63 -238 0
-63 -237 0
-63 -236 0
-63 -264 0
-63 -263 0
-63 -289 0
-63 -288 0
-89 -88 0
-89 -87 0
-89 -86 0
-89 -114 0
-89 -113 0
-89 -112 0
-89 -111 0
-89 -110 0
-89 -109 0
-89 -139 0
-89 -138 0
-89 -137 0
-89 -136 0
-89 -135 0
-89 -134 0
-89 -164 0
-89 -163 0
-89 -162 0
-89 -161 0
-89 -189 0
-89 -188 0
-89 -214 0
-89 -213 0
-89 -239 0
-89 -238 0
-89 -237 0
-89 -236 0
-89 -264 0
-89 -263 0
-89 -289 0
-89 -288 0
-88 -87 0
-88 -86 0
-88 -114 0
-88 -113 0
-88 -112 0
-88 -111 0
-88 -110 0
-88 -109 0
-88 -139 0
-88 -138 0
-88 -137 0
-88 -136 0
-88 -135 0
-88 -134 0
-88 -164 0
-88 -163 0
-88 -162 0
-88 -161 0
-88 -189 0
-88 -188 0
-88 -214 0
-88 -213 0
-88 -239 0
-88 -238 0
-88 -237 0
-88 -236 0
-88 -264 0
-88 -263 0
-88 -289 0
-88 -288 0
-87 -86 0
-87 -114 0
-87 -113 0
-87 -112 0
-87 -111 0
-87 -110 0
-87 -109 0
-87 -139 0
-87 -138 0
-87 -137 0
-87 -136 0
-87 -135 0
-87 -134 0
-87 -164 0
-87 -163 0
-87 -162 0
-87 -161 0
-87 -189 0
-87 -188 0
-87 -214 0
-87 -213 0
-87 -239 0
-87 -238 0
-87 -237 0
-87 -236 0
-87 -264 0
-87 -263 0
-87 -289 0
-87 -288 0
-86 -114 0
-86 -113 0
-86 -112 0
-86 -111 0
-86 -110 0
-86 -109 0
-86 -139 0
-86 -138 0
-86 -137 0
-86 -136 0
-86 -135 0
-86 -134 0
-86 -164 0
-86 -163 0
-86 -162 0
-86 -161 0
-86 -189 0
-86 -188 0
-86 -214 0
-86 -213 0
-86 -239 0
-86 -238 0
-86 -237 0
-86 -236 0
-86 -264 0
-86 -263 0
-86 -289 0
-86 -288 0
-114 -113 0
-114 -112 0
-114 -111 0
-114 -110 0
-114 -109 0
-114 -139 0
-114 -138 0
-114 -137 0
-114 -136 0
-114 -135 0
-114 -134 0
-114 -164 0
-114 -163 0
-114 -162 0
-114 -161 0
-114 -189 0
-114 -188 0
-114 -214 0
-114 -213 0
-114 -239 0
-114 -238 0
-114 -237 0
-114 -236 0
-114 -264 0
-114 -263 0
-114 -289 0
-114 -288 0
-113 -112 0
-113 -111 0
-113 -110 0
-113 -109 0
-113 -139 0
-113 -138 0
-113 -137 0
-113 -136 0
-113 -135 0
-113 -134 0
-113 -164 0
-113 -163 0
-113 -162 0
-113 -161 0
-113 -189 0
-113 -188 0
-113 -214 0
-113 -213 0
-113 -239 0
-113 -238 0
-113 -237 0
-113 -236 0
-113 -264 0
-113 -263 0
-113 -289 0
-113 -288 0
-112 -111 0
-112 -110 0
-112 -109 0
-112 -139 0
-112 -138 0
-112 -137 0
-112 -136 0
-112 -135 0
-112 -134 0
-112 -164 0
-112 -163 0
-112 -162 0
-112 -161 0
-112 -189 0
-112 -188 0
-112 -214 0
-112 -213 0
-112 -239 0
-112 -238 0
-112 -237 0
-112 -236 0
-112 -264 0
-112 -263 0
-112 -289 0
-112 -288 0
-111 -110 0
-111 -109 0
-111 -139 0
-111 -138 0
-111 -137 0
-111 -136 0
-111 -135 0
-111 -134 0
-111 -164 0
-111 -163 0
-111 -162 0
-111 -161 0
-111 -189 0
-111 -188 0
-111 -214 0
-111 -213 0
-111 -239 0
-111 -238 0
-111 -237 0
-111 -236 0
-111 -264 0
-111 -263 0
-111 -289 0
-111 -288 0
-110 -109 0
-110 -139 0
-110 -138 0
-110 -137 0
-110 -136 0
-110 -135 0
-110 -134 0
-110 -164 0
-110 -163 0
-110 -162 0
-110 -161 0
-110 -189 0
-110 -188 0
-110 -214 0
-110 -213 0
-110 -239 0
-110 -238 0
-110 -237 0
-110 -236 0
-110 -264 0
-110 -263 0
-110 -289 0
-110 -288 0
-109 -139 0
-109 -138 0
-109 -137 0
-109 -136 0
-109 -135 0
-109 -134 0
-109 -164 0
-109 -163 0
-109 -162 0
-109 -161 0
-109 -189 0
-109 -188 0
-109 -214 0
-109 -213 0
-109 -239 0
-109 -238 0
-109 -237 0
-109 -236 0
-109 -264 0
-109 -263 0
-109 -289 0
-109 -288 0
-139 -138 0
-139 -137 0
-139 -136 0
-139 -135 0
-139 -134 0
-139 -164 0
-139 -163 0
-139 -162 0
-139 -161 0
-139 -189 0
-139 -188 0
-139 -214 0
-139 -213 0
-139 -239 0
-139 -238 0
-139 -237 0
-139 -236 0
-139 -264 0
-139 -263 0
-139 -289 0
-139 -288 0
-138 -137 0
-138 -136 0
-138 -135 0
-138 -134 0
-138 -164 0
-138 -163 0
-138 -162 0
-138 -161 0
-138 -189 0
-138 -188 0
-138 -214 0
-138 -213 0
-138 -239 0
-138 -238 0
-138 -237 0
-138 -236 0
-138 -264 0
-138 -263 0
-138 -289 0
-138 -288 0
-137 -136 0
-137 -135 0
-137 -134 0
-137 -164 0
-137 -163 0
-137 -162 0
-137 -161 0
-137 -189 0
-137 -188 0
-137 -214 0
-137 -213 0
-137 -239 0
-137 -238 0
-137 -237 0
-137 -236 0
-137 -264 0
-137 -263 0
-137 -289 0
-137 -288 0
-136 -135 0
-136 -134 0
-136 -164 0
-136 -163 0
-136 -162 0
-136 -161 0
-136 -189 0
-136 -188 0
-136 -214 0
-136 -213 0
-136 -239 0
-136 -238 0
-136 -237 0
-136 -236 0
-136 -264 0
-136 -263 0
-136 -289 0
-136 -288 0
-135 -134 0
-135 -164 0
-135 -163 0
-135 -162 0
-135 -161 0
-135 -189 0
-135 -188 0
-135 -214 0
-135 -213 0
-135 -239 0
-135 -238 0
-135 -237 0
-135 -236 0
-135 -264 0
-135 -263 0
-135 -289 0
-135 -288 0
-134 -164 0
-134 -163 0
-134 -162 0
-134 -161 0
-134 -189 0
-134 -188 0
-134 -214 0
-134 -213 0
-134 -239 0
-134 -238 0
-134 -237 0
-134 -236 0
-134 -264 0
-134 -263 0
-134 -289 0
-134 -288 0
-164 -163 0
-164 -162 0
-164 -161 0
-164 -189 0
-164 -188 0
-164 -214 0
-164 -213 0
-164 -239 0
-164 -238 0
-164 -237 0
-164 -236 0
-164 -264 0
-164 -263 0
-164 -289 0
-164 -288 0
-163 -162 0
-163 -161 0
-163 -189 0
-163 -188 0
-163 -214 0
-163 -213 0
-163 -239 0
-163 -238 0
-163 -237 0
-163 -236 0
-163 -264 0
-163 -263 0
-163 -289 0
-163 -288 0
-162 -161 0
-162 -189 0
-162 -188 0
-162 -214 0
-162 -213 0
-162 -239 0
-162 -238 0
-162 -237 0
-162 -236 0
-162 -264 0
-162 -263 0
-162 -289 0
-162 -288 0
-161 -189 0
-161 -188 0
-161 -214 0
-161 -213 0
-161 -239 0
-161 -238 0
-161 -237 0
-161 -236 0
-161 -264 0
-161 -263 0
-161 -289 0
-161 -288 0
-189 -188 0
-189 -214 0
-189 -213 0
-189 -239 0
-189 -238 0
-189 -237 0
-189 -236 0
-189 -264 0
-189 -263 0
-189 -289 0
-189 -288 0
-188 -214 0
-188 -213 0
-188 -239 0
-188 -238 0
-188 -237 0
-188 -236 0
-188 -264 0
-188 -263 0
-188 -289 0
-188 -288 0
-214 -213 0
-214 -239 0
-214 -238 0
-214 -237 0
-214 -236 0
-214 -264 0
-214 -263 0
-214 -289 0
-214 -288 0
-213 -239 0
-213 -238 0
-213 -237 0
-213 -236 0
-213 -264 0
-213 -263 0
-213 -289 0
-213 -288 0
-239 -238 0
-239 -237 0
-239 -236 0
-239 -264 0
-239 -263 0
-239 -289 0
-239 -288 0
-238 -237 0
-238 -236 0
-238 -264 0
-238 -263 0
-238 -289 0
-238 -288 0
-237 -236 0
-237 -264 0
-237 -263 0
-237 -289 0
-237 -288 0
-236 -264 0
-236 -263 0
-236 -289 0
-236 -288 0
-264 -263 0
-264 -289 0
-264 -288 0
-263 -289 0
-263 -288 0
-289 -288 0
-15 -14 0
-15 -13 0
-15 -12 0
-15 -11 0
-15 -10 0
-15 -40 0
-15 -39 0
-15 -38 0
-15 -37 0
-15 -36 0
-15 -35 0
-15 -65 0
-15 -64 0
-15 -90 0
-15 -89 0
-15 -88 0
-15 -87 0
-15 -115 0
-15 -114 0
-15 -113 0
-15 -112 0
-15 -111 0
-15 -110 0
-15 -140 0
-15 -139 0
-15 -138 0
-15 -137 0
-15 -136 0
-15 -135 0
-15 -165 0
-15 -164 0
-15 -163 0
-15 -162 0
-15 -190 0
-15 -189 0
-15 -215 0
-15 -214 0
-15 -240 0
-15 -239 0
-15 -238 0
-15 -237 0
-15 -265 0
-15 -264 0
-15 -290 0
-15 -289 0
-14 -13 0
-14 -12 0
-14 -11 0
-14 -10 0
-14 -40 0
-14 -39 0
-14 -38 0
-14 -37 0
-14 -36 0
-14 -35 0
-14 -65 0
-14 -64 0
-14 -90 0
-14 -89 0
-14 -88 0
-14 -87 0
-14 -115 0
-14 -114 0
-14 -113 0
-14 -112 0
-14 -111 0
-14 -110 0
-14 -140 0
-14 -139 0
-14 -138 0
-14 -137 0
-14 -136 0
-14 -135 0
-14 -165 0
-14 -164 0
-14 -163 0
-14 -162 0
-14 -190 0
-14 -189 0
-14 -215 0
-14 -214 0
-14 -240 0
-14 -239 0
-14 -238 0
-14 -237 0
-14 -265 0
-14 -264 0
-14 -290 0
-14 -289 0
-13 -12 0
-13 -11 0
-13 -10 0
-13 -40 0
-13 -39 0
-13 -38 0
-13 -37 0
-13 -36 0
-13 -35 0
-13 -65 0
-13 -64 0
-13 -90 0
-13 -89 0
-13 -88 0
-13 -87 0
-13 -115 0
-13 -114 0
-13 -113 0
-13 -112 0
-13 -111 0
-13 -110 0
-13 -140 0
-13 -139 0
-13 -138 0
-13 -137 0
-13 -136 0
-13 -135 0
-13 -165 0
-13 -164 0
-13 -163 0
-13 -162 0
-13 -190 0
-13 -189 0
-13 -215 0
-13 -214 0
-13 -240 0
-13 -239 0
-13 -238 0
-13 -237 0
-13 -265 0
-13 -264 0
-13 -290 0
-13 -289 0
-12 -11 0
-12 -10 0
-12 -40 0
-12 -39 0
-12 -38 0
-12 -37 0
-12 -36 0
-12 -35 0
-12 -65 0
-12 -64 0
-12 -90 0
-12 -89 0
-12 -88 0
-12 -87 0
-12 -115 0
-12 -114 0
-12 -113 0
-12 -112 0
-12 -111 0
-12 -110 0
-12 -140 0
-12 -139 0
-12 -138 0
-12 -137 0
-12 -136 0
-12 -135 0
-12 -165 0
-12 -164 0
-12 -163 0
-12 -162 0
-12 -190 0
-12 -189 0
-12 -215 0
-12 -214 0
-12 -240 0
-12 -239 0
-12 -238 0
-12 -237 0
-12 -265 0
-12 -264 0
-12 -290 0
-12 -289 0
-11 -10 0
-11 -40 0
-11 -39 0
-11 -38 0
-11 -37 0
-11 -36 0
-11 -35 0
-11 -65 0
-11 -64 0
-11 -90 0
-11 -89 0
-11 -88 0
-11 -87 0
-11 -115 0
-11 -114 0
-11 -113 0
-11 -112 0
-11 -111 0
-11 -110 0
-11 -140 0
-11 -139 0
-11 -138 0
-11 -137 0
-11 -136 0
-11 -135 0
-11 -165 0
-11 -164 0
-11 -163 0
-11 -162 0
-11 -190 0
-11 -189 0
-11 -215 0
-11 -214 0
-11 -240 0
-11 -239 0
-11 -238 0
-11 -237 0
-11 -265 0
-11 -264 0
-11 -290 0
-11 -289 0
-10 -40 0
-10 -39 0
-10 -38 0
-10 -37 0
-10 -36 0
-10 -35 0
-10 -65 0
-10 -64 0
-10 -90 0
-10 -89 0
-10 -88 0
-10 -87 0
-10 -115 0
-10 -114 0
-10 -113 0
-10 -112 0
-10 -111 0
-10 -110 0
-10 -140 0
-10 -139 0
-10 -138 0
-10 -137 0
-10 -136 0
-10 -135 0
-10 -165 0
-10 -164 0
-10 -163 0
-10 -162 0
-10 -190 0
-10 -189 0
-10 -215 0
-10 -214 0
-10 -240 0
-10 -239 0
-10 -238 0
-10 -237 0
-10 -265 0
-10 -264 0
-10 -290 0
-10 -289 0
-40 -39 0
-40 -38 0
-40 -37 0
-40 -36 0
-40 -35 0
-40 -65 0
-40 -64 0
-40 -90 0
-40 -89 0
-40 -88 0
-40 -87 0
-40 -115 0
-40 -114 0
-40 -113 0
-40 -112 0
-40 -111 0
-40 -110 0
-40 -140 0
-40 -139 0
-40 -138 0
-40 -137 0
-40 -136 0
-40 -135 0
-40 -165 0
-40 -164 0
-40 -163 0
-40 -162 0
-40 -190 0
-40 -189 0
-40 -215 0
-40 -214 0
-40 -240 0
-40 -239 0
-40 -238 0
-40 -237 0
-40 -265 0
-40 -264 0
-40 -290 0
-40 -289 0
-39 -38 0
-39 -37 0
-39 -36 0
-39 -35 0
-39 -65 0
-39 -64 0
-39 -90 0
-39 -89 0
-39 -88 0
-39 -87 0
-39 -115 0
-39 -114 0
-39 -113 0
-39 -112 0
-39 -111 0
-39 -110 0
-39 -140 0
-39 -139 0
-39 -138 0
-39 -137 0
-39 -136 0
-39 -135 0
-39 -165 0
-39 -164 0
-39 -163 0
-39 -162 0
-39 -190 0
-39 -189 0
-39 -215 0
-39 -214 0
-39 -240 0
-39 -239 0
-39 -238 0
-39 -237 0
-39 -265 0
-39 -264 0
-39 -290 0
-39 -289 0
-38 -37 0
-38 -36 0
-38 -35 0
-38 -65 0
-38 -64 0
-38 -90 0
-38 -89 0
-38 -88 0
-38 -87 0
-38 -115 0
-38 -114 0
-38 -113 0
-38 -112 0
-38 -111 0
-38 -110 0
-38 -140 0
-38 -139 0
-38 -138 0
-38 -137 0
-38 -136 0
-38 -135 0
-38 -165 0
-38 -164 0
-38 -163 0
-38 -162 0
-38 -190 0
-38 -189 0
-38 -215 0
-38 -214 0
-38 -240 0
-38 -239 0
-38 -238 0
-38 -237 0
-38 -265 0
-38 -264 0
-38 -290 0
-38 -289 0
-37 -36 0
-37 -35 0
-37 -65 0
-37 -64 0
-37 -90 0
-37 -89 0
-37 -88 0
-37 -87 0
-37 -115 0
-37 -114 0
-37 -113 0
-37 -112 0
-37 -111 0
-37 -110 0
-37 -140 0
-37 -139 0
-37 -138 0
-37 -137 0
-37 -136 0
-37 -135 0
-37 -165 0
-37 -164 0
-37 -163 0
-37 -162 0
-37 -190 0
-37 -189 0
-37 -215 0
-37 -214 0
-37 -240 0
-37 -239 0
-37 -238 0
-37 -237 0
-37 -265 0
-37 -264 0
-37 -290 0
-37 -289 0
-36 -35 0
-36 -65 0
-36 -64 0
-36 -90 0
-36 -89 0
-36 -88 0
-36 -87 0
-36 -115 0
-36 -114 0
-36 -113 0
-36 -112 0
-36 -111 0
-36 -110 0
-36 -140 0
-36 -139 0
-36 -138 0
-36 -137 0
-36 -136 0
-36 -135 0
-36 -165 0
-36 -164 0
-36 -163 0
-36 -162 0
-36 -190 0
-36 -189 0
-36 -215 0
-36 -214 0
-36 -240 0
-36 -239 0
-36 -238 0
-36 -237 0
-36 -265 0
-36 -264 0
-36 -290 0
-36 -289 0
-35 -65 0
-35 -64 0
-35 -90 0
-35 -89 0
-35 -88 0
-35 -87 0
-35 -115 0
-35 -114 0
-35 -113 0
-35 -112 0
-35 -111 0
-35 -110 0
-35 -140 0
-35 -139 0
-35 -138 0
-35 -137 0
-35 -136 0
-35 -135 0
-35 -165 0
-35 -164 0
-35 -163 0
-35 -162 0
-35 -190 0
-35 -189 0
-35 -215 0
-35 -214 0
-35 -240 0
-35 -239 0
-35 -238 0
-35 -237 0
-35 -265 0
-35 -264 0
-35 -290 0
-35 -289 0
-65 -64 0
-65 -90 0
-65 -89 0
-65 -88 0
-65 -87 0
-65 -115 0
-65 -114 0
-65 -113 0
-65 -112 0
-65 -111 0
-65 -110 0
-65 -140 0
-65 -139 0
-65 -138 0
-65 -137 0
-65 -136 0
-65 -135 0
-65 -165 0
-65 -164 0
-65 -163 0
-65 -162 0
-65 -190 0
-65 -189 0
-65 -215 0
-65 -214 0
-65 -240 0
-65 -239 0
-65 -238 0
-65 -237 0
-65 -265 0
-65 -264 0
-65 -290 0
-65 -289 0
-64 -90 0
-64 -89 0
-64 -88 0
-64 -87 0
-64 -115 0
-64 -114 0
-64 -113 0
-64 -112 0
-64 -111 0
-64 -110 0
-64 -140 0
-64 -139 0
-64 -138 0
-64 -137 0
-64 -136 0
-64 -135 0
-64 -165 0
-64 -164 0
-64 -163 0
-64 -162 0
-64 -190 0
-64 -189 0
-64 -215 0
-64 -214 0
-64 -240 0
-64 -239 0
-64 -238 0
-64 -237 0
-64 -265 0
-64 -264 0
-64 -290 0
-64 -289 0
-90 -89 0
-90 -88 0
-90 -87 0
-90 -115 0
-90 -114 0
-90 -113 0
-90 -112 0
-90 -111 0
-90 -110 0
-90 -140 0
-90 -139 0
-90 -138 0
-90 -137 0
-90 -136 0
-90 -135 0
-90 -165 0
-90 -164 0
-90 -163 0
-90 -162 0
-90 -190 0
-90 -189 0
-90 -215 0
-90 -214 0
-90 -240 0
-90 -239 0
-90 -238 0
-90 -237 0
-90 -265 0
-90 -264 0
-90 -290 0
-90 -289 0
-89 -88 0
-89 -87 0
-89 -115 0
-89 -114 0
-89 -113 0
-89 -112 0
-89 -111 0
-89 -110 0
-89 -140 0
-89 -139 0
-89 -138 0
-89 -137 0
-89 -136 0
-89 -135 0
-89 -165 0
-89 -164 0
-89 -163 0
-89 -162 0
-89 -190 0
-89 -189 0
-89 -215 0
-89 -214 0
-89 -240 0
-89 -239 0
-89 -238 0
-89 -237 0
-89 -265 0
-89 -264 0
-89 -290 0
-89 -289 0
-88 -87 0
-88 -115 0
-88 -114 0
-88 -113 0
-88 -112 0
-88 -111 0
-88 -110 0
-88 -140 0
-88 -139 0
-88 -138 0
-88 -137 0
-88 -136 0
-88 -135 0
-88 -165 0
-88 -164 0
-88 -163 0
-88 -162 0
-88 -190 0
-88 -189 0
-88 -215 0
-88 -214 0
-88 -240 0
-88 -239 0
-88 -238 0
-88 -237 0
-88 -265 0
-88 -264 0
-88 -290 0
-88 -289 0
-87 -115 0
-87 -114 0
-87 -113 0
-87 -112 0
-87 -111 0
-87 -110 0
-87 -140 0
-87 -139 0
-87 -138 0
-87 -137 0
-87 -136 0
-87 -135 0
-87 -165 0
-87 -164 0
-87 -163 0
-87 -162 0
-87 -190 0
-87 -189 0
-87 -215 0
-87 -214 0
-87 -240 0
-87 -239 0
-87 -238 0
-87 -237 0
-87 -265 0
-87 -264 0
-87 -290 0
-87 -289 0
-115 -114 0
-115 -113 0
-115 -112 0
-115 -111 0
-115 -110 0
-115 -140 0
-115 -139 0
-115 -138 0
-115 -137 0
-115 -136 0
-115 -135 0
-115 -165 0
-115 -164 0
-115 -163 0
-115 -162 0
-115 -190 0
-115 -189 0
-115 -215 0
-115 -214 0
-115 -240 0
-115 -239 0
-115 -238 0
-115 -237 0
-115 -265 0
-115 -264 0
-115 -290 0
-115 -289 0
-114 -113 0
-114 -112 0
-114 -111 0
-114 -110 0
-114 -140 0
-114 -139 0
-114 -138 0
-114 -137 0
-114 -136 0
-114 -135 0
-114 -165 0
-114 -164 0
-114 -163 0
-114 -162 0
-114 -190 0
-114 -189 0
-114 -215 0
-114 -214 0
-114 -240 0
-114 -239 0
-114 -238 0
-114 -237 0
-114 -265 0
-114 -264 0
-114 -290 0
-114 -289 0
-113 -112 0
-113 -111 0
-113 -110 0
-113 -140 0
-113 -139 0
-113 -138 0
-113 -137 0
-113 -136 0
-113 -135 0
-113 -165 0
-113 -164 0
-113 -163 0
-113 -162 0
-113 -190 0
-113 -189 0
-113 -215 0
-113 -214 0
-113 -240 0
-113 -239 0
-113 -238 0
-113 -237 0
-113 -265 0
-113 -264 0
-113 -290 0
-113 -289 0
-112 -111 0
-112 -110 0
-112 -140 0
-112 -139 0
-112 -138 0
-112 -137 0
-112 -136 0
-112 -135 0
-112 -165 0
-112 -164 0
-112 -163 0
-112 -162 0
-112 -190 0
-112 -189 0
-112 -215 0
-112 -214 0
-112 -240 0
-112 -239 0
-112 -238 0
-112 -237 0
-112 -265 0
-112 -264 0
-112 -290 0
-112 -289 0
-111 -110 0
-111 -140 0
-111 -139 0
-111 -138 0
-111 -137 0
-111 -136 0
-111 -135 0
-111 -165 0
-111 -164 0
-111 -163 0
-111 -162 0
-111 -190 0
-111 -189 0
-111 -215 0
-111 -214 0
-111 -240 0
-111 -239 0
-111 -238 0
-111 -237 0
-111 -265 0
-111 -264 0
-111 -290 0
-111 -289 0
-110 -140 0
-110 -139 0
-110 -138 0
-110 -137 0
-110 -136 0
-110 -135 0
-110 -165 0
-110 -164 0
-110 -163 0
-110 -162 0
-110 -190 0
-110 -189 0
-110 -215 0
-110 -214 0
-110 -240 0
-110 -239 0
-110 -238 0
-110 -237 0
-110 -265 0
-110 -264 0
-110 -290 0
-110 -289 0
-140 -139 0
-140 -138 0
-140 -137 0
-140 -136 0
-140 -135 0
-140 -165 0
-140 -164 0
-140 -163 0
-140 -162 0
-140 -190 0
-140 -189 0
-140 -215 0
-140 -214 0
-140 -240 0
-140 -239 0
-140 -238 0
-140 -237 0
-140 -265 0
-140 -264 0
-140 -290 0
-140 -289 0
-139 -138 0
-139 -137 0
-139 -136 0
-139 -135 0
-139 -165 0
-139 -164 0
-139 -163 0
-139 -162 0
-139 -190 0
-139 -189 0
-139 -215 0
-139 -214 0
-139 -240 0
-139 -239 0
-139 -238 0
-139 -237 0
-139 -265 0
-139 -264 0
-139 -290 0
-139 -289 0
-138 -137 0
-138 -136 0
-138 -135 0
-138 -165 0
-138 -164 0
-138 -163 0
-138 -162 0
-138 -190 0
-138 -189 0
-138 -215 0
-138 -214 0
-138 -240 0
-138 -239 0
-138 -238 0
-138 -237 0
-138 -265 0
-138 -264 0
-138 -290 0
-138 -289 0
-137 -136 0
-137 -135 0
-137 -165 0
-137 -164 0
-137 -163 0
-137 -162 0
-137 -190 0
-137 -189 0
-137 -215 0
-137 -214 0
-137 -240 0
-137 -239 0
-137 -238 0
-137 -237 0
-137 -265 0
-137 -264 0
-137 -290 0
-137 -289 0
-136 -135 0
-136 -165 0
-136 -164 0
-136 -163 0
-136 -162 0
-136 -190 0
-136 -189 0
-136 -215 0
-136 -214 0
-136 -240 0
-136 -239 0
-136 -238 0
-136 -237 0
-136 -265 0
-136 -264 0
-136 -290 0
-136 -289 0
-135 -165 0
-135 -164 0
-135 -163 0
-135 -162 0
-135 -190 0
-135 -189 0
-135 -215 0
-135 -214 0
-135 -240 0
-135 -239 0
-135 -238 0
-135 -237 0
-135 -265 0
-135 -264 0
-135 -290 0
-135 -289 0
-165 -164 0
-165 -163 0
-165 -162 0
-165 -190 0
-165 -189 0
-165 -215 0
-165 -214 0
-165 -240 0
-165 -239 0
-165 -238 0
-165 -237 0
-165 -265 0
-165 -264 0
-165 -290 0
-165 -289 0
-164 -163 0
-164 -162 0
-164 -190 0
-164 -189 0
-164 -215 0
-164 -214 0
-164 -240 0
-164 -239 0
-164 -238 0
-164 -237 0
-164 -265 0
-164 -264 0
-164 -290 0
-164 -289 0
-163 -162 0
-163 -190 0
-163 -189 0
-163 -215 0
-163 -214 0
-163 -240 0
-163 -239 0
-163 -238 0
-163 -237 0
-163 -265 0
-163 -264 0
-163 -290 0
-163 -289 0
-162 -190 0
-162 -189 0
-162 -215 0
-162 -214 0
-162 -240 0
-162 -239 0
-162 -238 0
-162 -237 0
-162 -265 0
-162 -264 0
-162 -290 0
-162 -289 0
-190 -189 0
-190 -215 0
-190 -214 0
-190 -240 0
-190 -239 0
-190 -238 0
-190 -237 0
-190 -265 0
-190 -264 0
-190 -290 0
-190 -289 0
-189 -215 0
-189 -214 0
-189 -240 0
-189 -239 0
-189 -238 0
-189 -237 0
-189 -265 0
-189 -264 0
-189 -290 0
-189 -289 0
-215 -214 0
-215 -240 0
-215 -239 0
-215 -238 0
-215 -237 0
-215 -265 0
-215 -264 0
-215 -290 0
-215 -289 0
-214 -240 0
-214 -239 0
-214 -238 0
-214 -237 0
-214 -265 0
-214 -264 0
-214 -290 0
-214 -289 0
-240 -239 0
-240 -238 0
-240 -237 0
-240 -265 0
-240 -264 0
-240 -290 0
-240 -289 0
-239 -238 0
-239 -237 0
-239 -265 0
-239 -264 0
-239 -290 0
-239 -289 0
-238 -237 0
-238 -265 0
-238 -264 0
-238 -290 0
-238 -289 0
-237 -265 0
-237 -264 0
-237 -290 0
-237 -289 0
-265 -264 0
-265 -290 0
-265 -289 0
-264 -290 0
-264 -289 0
-290 -289 0
-16 -15 0
-16 -14 0
-16 -13 0
-16 -12 0
-16 -11 0
-16 -41 0
-16 -40 0
-16 -39 0
-16 -38 0
-16 -37 0
-16 -36 0
-16 -66 0
-16 -65 0
-16 -91 0
-16 -90 0
-16 -89 0
-16 -88 0
-16 -116 0
-16 -115 0
-16 -114 0
-16 -113 0
-16 -112 0
-16 -111 0
-16 -141 0
-16 -140 0
-16 -139 0
-16 -138 0
-16 -137 0
-16 -136 0
-16 -166 0
-16 -165 0
-16 -164 0
-16 -163 0
-16 -191 0
-16 -190 0
-16 -216 0
-16 -215 0
-16 -241 0
-16 -240 0
-16 -239 0
-16 -238 0
-16 -266 0
-16 -265 0
-16 -291 0
-16 -290 0
-15 -14 0
-15 -13 0
-15 -12 0
-15 -11 0
-15 -41 0
-15 -40 0
-15 -39 0
-15 -38 0
-15 -37 0
-15 -36 0
-15 -66 0
-15 -65 0
-15 -91 0
-15 -90 0
-15 -89 0
-15 -88 0
-15 -116 0
-15 -115 0
-15 -114 0
-15 -113 0
-15 -112 0
-15 -111 0
-15 -141 0
-15 -140 0
-15 -139 0
-15 -138 0
-15 -137 0
-15 -136 0
-15 -166 0
-15 -165 0
-15 -164 0
-15 -163 0
-15 -191 0
-15 -190 0
-15 -216 0
-15 -215 0
-15 -241 0
-15 -240 0
-15 -239 0
-15 -238 0
-15 -266 0
-15 -265 0
-15 -291 0
-15 -290 0
-14 -13 0
-14 -12 0
-14 -11 0
-14 -41 0
-14 -40 0
-14 -39 0
-14 -38 0
-14 -37 0
-14 -36 0
-14 -66 0
-14 -65 0
-14 -91 0
-14 -90 0
-14 -89 0
-14 -88 0
-14 -116 0
-14 -115 0
-14 -114 0
-14 -113 0
-14 -112 0
-14 -111 0
-14 -141 0
-14 -140 0
-14 -139 0
-14 -138 0
-14 -137 0
-14 -136 0
-14 -166 0
-14 -165 0
-14 -164 0
-14 -163 0
-14 -191 0
-14 -190 0
-14 -216 0
-14 -215 0
-14 -241 0
-14 -240 0
-14 -239 0
-14 -238 0
-14 -266 0
-14 -265 0
-14 -291 0
-14 -290 0
-13 -12 0
-13 -11 0
-13 -41 0
-13 -40 0
-13 -39 0
-13 -38 0
-13 -37 0
-13 -36 0
-13 -66 0
-13 -65 0
-13 -91 0
-13 -90 0
-13 -89 0
-13 -88 0
-13 -116 0
-13 -115 0
-13 -114 0
-13 -113 0
-13 -112 0
-13 -111 0
-13 -141 0
-13 -140 0
-13 -139 0
-13 -138 0
-13 -137 0
-13 -136 0
-13 -166 0
-13 -165 0
-13 -164 0
-13 -163 0
-13 -191 0
-13 -190 0
-13 -216 0
-13 -215 0
-13 -241 0
-13 -240 0
-13 -239 0
-13 -238 0
-13 -266 0
-13 -265 0
-13 -291 0
-13 -290 0
-12 -11 0
-12 -41 0
-12 -40 0
-12 -39 0
-12 -38 0
-12 -37 0
-12 -36 0
-12 -66 0
-12 -65 0
-12 -91 0
-12 -90 0
-12 -89 0
-12 -88 0
-12 -116 0
-12 -115 0
-12 -114 0
-12 -113 0
-12 -112 0
-12 -111 0
-12 -141 0
-12 -140 0
-12 -139 0
-12 -138 0
-12 -137 0
-12 -136 0
-12 -166 0
-12 -165 0
-12 -164 0
-12 -163 0
-12 -191 0
-12 -190 0
-12 -216 0
-12 -215 0
-12 -241 0
-12 -240 0
-12 -239 0
-12 -238 0
-12 -266 0
-12 -265 0
-12 -291 0
-12 -290 0
-11 -41 0
-11 -40 0
-11 -39 0
-11 -38 0
-11 -37 0
-11 -36 0
-11 -66 0
-11 -65 0
-11 -91 0
-11 -90 0
-11 -89 0
-11 -88 0
-11 -116 0
-11 -115 0
-11 -114 0
-11 -113 0
-11 -112 0
-11 -111 0
-11 -141 0
-11 -140 0
-11 -139 0
-11 -138 0
-11 -137 0
-11 -136 0
-11 -166 0
-11 -165 0
-11 -164 0
-11 -163 0
-11 -191 0
-11 -190 0
-11 -216 0
-11 -215 0
-11 -241 0
-11 -240 0
-11 -239 0
-11 -238 0
-11 -266 0
-11 -265 0
-11 -291 0
-11 -290 0
-41 -40 0
-41 -39 0
-41 -38 0
-41 -37 0
-41 -36 0
-41 -66 0
-41 -65 0
-41 -91 0
-41 -90 0
-41 -89 0
-41 -88 0
-41 -116 0
-41 -115 0
-41 -114 0
-41 -113 0
-41 -112 0
-41 -111 0
-41 -141 0
-41 -140 0
-41 -139 0
-41 -138 0
-41 -137 0
-41 -136 0
-41 -166 0
-41 -165 0
-41 -164 0
-41 -163 0
-41 -191 0
-41 -190 0
-41 -216 0
-41 -215 0
-41 -241 0
-41 -240 0
-41 -239 0
-41 -238 0
-41 -266 0
-41 -265 0
-41 -291 0
-41 -290 0
-40 -39 0
-40 -38 0
-40 -37 0
-40 -36 0
-40 -66 0
-40 -65 0
-40 -91 0
-40 -90 0
-40 -89 0
-40 -88 0
-40 -116 0
-40 -115 0
-40 -114 0
-40 -113 0
-40 -112 0
-40 -111 0
-40 -141 0
-40 -140 0
-40 -139 0
-40 -138 0
-40 -137 0
-40 -136 0
-40 -166 0
-40 -165 0
-40 -164 0
-40 -163 0
-40 -191 0
-40 -190 0
-40 -216 0
-40 -215 0
-40 -241 0
-40 -240 0
-40 -239 0
-40 -238 0
-40 -266 0
-40 -265 0
-40 -291 0
-40 -290 0
-39 -38 0
-39 -37 0
-39 -36 0
-39 -66 0
-39 -65 0
-39 -91 0
-39 -90 0
-39 -89 0
-39 -88 0
-39 -116 0
-39 -115 0
-39 -114 0
-39 -113 0
-39 -112 0
-39 -111 0
-39 -141 0
-39 -140 0
-39 -139 0
-39 -138 0
-39 -137 0
-39 -136 0
-39 -166 0
-39 -165 0
-39 -164 0
-39 -163 0
-39 -191 0
-39 -190 0
-39 -216 0
-39 -215 0
-39 -241 0
-39 -240 0
-39 -239 0
-39 -238 0
-39 -266 0
-39 -265 0
-39 -291 0
-39 -290 0
-38 -37 0
-38 -36 0
-38 -66 0
-38 -65 0
-38 -91 0
-38 -90 0
-38 -89 0
-38 -88 0
-38 -116 0
-38 -115 0
-38 -114 0
-38 -113 0
-38 -112 0
-38 -111 0
-38 -141 0
-38 -140 0
-38 -139 0
-38 -138 0
-38 -137 0
-38 -136 0
-38 -166 0
-38 -165 0
-38 -164 0
-38 -163 0
-38 -191 0
-38 -190 0
-38 -216 0
-38 -215 0
-38 -241 0
-38 -240 0
-38 -239 0
-38 -238 0
-38 -266 0
-38 -265 0
-38 -291 0
-38 -290 0
-37 -36 0
-37 -66 0
-37 -65 0
-37 -91 0
-37 -90 0
-37 -89 0
-37 -88 0
-37 -116 0
-37 -115 0
-37 -114 0
-37 -113 0
-37 -112 0
-37 -111 0
-37 -141 0
-37 -140 0
-37 -139 0
-37 -138 0
-37 -137 0
-37 -136 0
-37 -166 0
-37 -165 0
-37 -164 0
-37 -163 0
-37 -191 0
-37 -190 0
-37 -216 0
-37 -215 0
-37 -241 0
-37 -240 0
-37 -239 0
-37 -238 0
-37 -266 0
-37 -265 0
-37 -291 0
-37 -290 0
-36 -66 0
-36 -65 0
-36 -91 0
-36 -90 0
-36 -89 0
-36 -88 0
-36 -116 0
-36 -115 0
-36 -114 0
-36 -113 0
-36 -112 0
-36 -111 0
-36 -141 0
-36 -140 0
-36 -139 0
-36 -138 0
-36 -137 0
-36 -136 0
-36 -166 0
-36 -165 0
-36 -164 0
-36 -163 0
-36 -191 0
-36 -190 0
-36 -216 0
-36 -215 0
-36 -241 0
-36 -240 0
-36 -239 0
-36 -238 0
-36 -266 0
-36 -265 0
-36 -291 0
-36 -290 0
-66 -65 0
-66 -91 0
-66 -90 0
-66 -89 0
-66 -88 0
-66 -116 0
-66 -115 0
-66 -114 0
-66 -113 0
-66 -112 0
-66 -111 0
-66 -141 0
-66 -140 0
-66 -139 0
-66 -138 0
-66 -137 0
-66 -136 0
-66 -166 0
-66 -165 0
-66 -164 0
-66 -163 0
-66 -191 0
-66 -190 0
-66 -216 0
-66 -215 0
-66 -241 0
-66 -240 0
-66 -239 0
-66 -238 0
-66 -266 0
-66 -265 0
-66 -291 0
-66 -290 0
-65 -91 0
-65 -90 0
-65 -89 0
-65 -88 0
-65 -116 0
-65 -115 0
-65 -114 0
-65 -113 0
-65 -112 0
-65 -111 0
-65 -141 0
-65 -140 0
-65 -139 0
-65 -138 0
-65 -137 0
-65 -136 0
-65 -166 0
-65 -165 0
-65 -164 0
-65 -163 0
-65 -191 0
-65 -190 0
-65 -216 0
-65 -215 0
-65 -241 0
-65 -240 0
-65 -239 0
-65 -238 0
-65 -266 0
-65 -265 0
-65 -291 0
-65 -290 0
-91 -90 0
-91 -89 0
-91 -88 0
-91 -116 0
-91 -115 0
-91 -114 0
-91 -113 0
-91 -112 0
-91 -111 0
-91 -141 0
-91 -140 0
-91 -139 0
-91 -138 0
-91 -137 0
-91 -136 0
-91 -166 0
-91 -165 0
-91 -164 0
-91 -163 0
-91 -191 0
-91 -190 0
-91 -216 0
-91 -215 0
-91 -241 0
-91 -240 0
-91 -239 0
-91 -238 0
-91 -266 0
-91 -265 0
-91 -291 0
-91 -290 0
-90 -89 0
-90 -88 0
-90 -116 0
-90 -115 0
-90 -114 0
-90 -113 0
-90 -112 0
-90 -111 0
-90 -141 0
-90 -140 0
-90 -139 0
-90 -138 0
-90 -137 0
-90 -136 0
-90 -166 0
-90 -165 0
-90 -164 0
-90 -163 0
-90 -191 0
-90 -190 0
-90 -216 0
-90 -215 0
-90 -241 0
-90 -240 0
-90 -239 0
-90 -238 0
-90 -266 0
-90 -265 0
-90 -291 0
-90 -290 0
-89 -88 0
-89 -116 0
-89 -115 0
-89 -114 0
-89 -113 0
-89 -112 0
-89 -111 0
-89 -141 0
-89 -140 0
-89 -139 0
-89 -138 0
-89 -137 0
-89 -136 0
-89 -166 0
-89 -165 0
-89 -164 0
-89 -163 0
-89 -191 0
-89 -190 0
-89 -216 0
-89 -215 0
-89 -241 0
-89 -240 0
-89 -239 0
-89 -238 0
-89 -266 0
-89 -265 0
-89 -291 0
-89 -290 0
-88 -116 0
-88 -115 0
-88 -114 0
-88 -113 0
-88 -112 0
-88 -111 0
-88 -141 0
-88 -140 0
-88 -139 0
-88 -138 0
-88 -137 0
-88 -136 0
-88 -166 0
-88 -165 0
-88 -164 0
-88 -163 0
-88 -191 0
-88 -190 0
-88 -216 0
-88 -215 0
-88 -241 0
-88 -240 0
-88 -239 0
-88 -238 0
-88 -266 0
-88 -265 0
-88 -291 0
-88 -290 0
-116 -115 0
-116 -114 0
-116 -113 0
-116 -112 0
-116 -111 0
-116 -141 0
-116 -140 0
-116 -139 0
-116 -138 0
-116 -137 0
-116 -136 0
-116 -166 0
-116 -165 0
-116 -164 0
-116 -163 0
-116 -191 0
-116 -190 0
-116 -216 0
-116 -215 0
-116 -241 0
-116 -240 0
-116 -239 0
-116 -238 0
-116 -266 0
-116 -265 0
-116 -291 0
-116 -290 0
-115 -114 0
-115 -113 0
-115 -112 0
-115 -111 0
-115 -141 0
-115 -140 0
-115 -139 0
-115 -138 0
-115 -137 0
-115 -136 0
-115 -166 0
-115 -165 0
-115 -164 0
-115 -163 0
-115 -191 0
-115 -190 0
-115 -216 0
-115 -215 0
-115 -241 0
-115 -240 0
-115 -239 0
-115 -238 0
-115 -266 0
-115 -265 0
-115 -291 0
-115 -290 0
-114 -113 0
-114 -112 0
-114 -111 0
-114 -141 0
-114 -140 0
-114 -139 0
-114 -138 0
-114 -137 0
-114 -136 0
-114 -166 0
-114 -165 0
-114 -164 0
-114 -163 0
-114 -191 0
-114 -190 0
-114 -216 0
-114 -215 0
-114 -241 0
-114 -240 0
-114 -239 0
-114 -238 0
-114 -266 0
-114 -265 0
-114 -291 0
-114 -290 0
-113 -112 0
-113 -111 0
-113 -141 0
-113 -140 0
-113 -139 0
-113 -138 0
-113 -137 0
-113 -136 0
-113 -166 0
-113 -165 0
-113 -164 0
-113 -163 0
-113 -191 0
-113 -190 0
-113 -216 0
-113 -215 0
-113 -241 0
-113 -240 0
-113 -239 0
-113 -238 0
-113 -266 0
-113 -265 0
-113 -291 0
-113 -290 0
-112 -111 0
-112 -141 0
-112 -140 0
-112 -139 0
-112 -138 0
-112 -137 0
-112 -136 0
-112 -166 0
-112 -165 0
-112 -164 0
-112 -163 0
-112 -191 0
-112 -190 0
-112 -216 0
-112 -215 0
-112 -241 0
-112 -240 0
-112 -239 0
-112 -238 0
-112 -266 0
-112 -265 0
-112 -291 0
-112 -290 0
-111 -141 0
-111 -140 0
-111 -139 0
-111 -138 0
-111 -137 0
-111 -136 0
-111 -166 0
-111 -165 0
-111 -164 0
-111 -163 0
-111 -191 0
-111 -190 0
-111 -216 0
-111 -215 0
-111 -241 0
-111 -240 0
-111 -239 0
-111 -238 0
-111 -266 0
-111 -265 0
-111 -291 0
-111 -290 0
-141 -140 0
-141 -139 0
-141 -138 0
-141 -137 0
-141 -136 0
-141 -166 0
-141 -165 0
-141 -164 0
-141 -163 0
-141 -191 0
-141 -190 0
-141 -216 0
-141 -215 0
-141 -241 0
-141 -240 0
-141 -239 0
-141 -238 0
-141 -266 0
-141 -265 0
-141 -291 0
-141 -290 0
-140 -139 0
-140 -138 0
-140 -137 0
-140 -136 0
-140 -166 0
-140 -165 0
-140 -164 0
-140 -163 0
-140 -191 0
-140 -190 0
-140 -216 0
-140 -215 0
-140 -241 0
-140 -240 0
-140 -239 0
-140 -238 0
-140 -266 0
-140 -265 0
-140 -291 0
-140 -290 0
-139 -138 0
-139 -137 0
-139 -136 0
-139 -166 0
-139 -165 0
-139 -164 0
-139 -163 0
-139 -191 0
-139 -190 0
-139 -216 0
-139 -215 0
-139 -241 0
-139 -240 0
-139 -239 0
-139 -238 0
-139 -266 0
-139 -265 0
-139 -291 0
-139 -290 0
-138 -137 0
-138 -136 0
-138 -166 0
-138 -165 0
-138 -164 0
-138 -163 0
-138 -191 0
-138 -190 0
-138 -216 0
-138 -215 0
-138 -241 0
-138 -240 0
-138 -239 0
-138 -238 0
-138 -266 0
-138 -265 0
-138 -291 0
-138 -290 0
-137 -136 0
-137 -166 0
-137 -165 0
-137 -164 0
-137 -163 0
-137 -191 0
-137 -190 0
-137 -216 0
-137 -215 0
-137 -241 0
-137 -240 0
-137 -239 0
-137 -238 0
-137 -266 0
-137 -265 0
-137 -291 0
-137 -290 0
-136 -166 0
-136 -165 0
-136 -164 0
-136 -163 0
-136 -191 0
-136 -190 0
-136 -216 0
-136 -215 0
-136 -241 0
-136 -240 0
-136 -239 0
-136 -238 0
-136 -266 0
-136 -265 0
-136 -291 0
-136 -290 0
-166 -165 0
-166 -164 0
-166 -163 0
-166 -191 0
-166 -190 0
-166 -216 0
-166 -215 0
-166 -241 0
-166 -240 0
-166 -239 0
-166 -238 0
-166 -266 0
-166 -265 0
-166 -291 0
-166 -290 0
-165 -164 0
-165 -163 0
-165 -191 0
-165 -190 0
-165 -216 0
-165 -215 0
-165 -241 0
-165 -240 0
-165 -239 0
-165 -238 0
-165 -266 0
-165 -265 0
-165 -291 0
-165 -290 0
-164 -163 0
-164 -191 0
-164 -190 0
-164 -216 0
-164 -215 0
-164 -241 0
-164 -240 0
-164 -239 0
-164 -238 0
-164 -266 0
-164 -265 0
-164 -291 0
-164 -290 0
-163 -191 0
-163 -190 0
-163 -216 0
-163 -215 0
-163 -241 0
-163 -240 0
-163 -239 0
-163 -238 0
-163 -266 0
-163 -265 0
-163 -291 0
-163 -290 0
-191 -190 0
-191 -216 0
-191 -215 0
-191 -241 0
-191 -240 0
-191 -239 0
-191 -238 0
-191 -266 0
-191 -265 0
-191 -291 0
-191 -290 0
-190 -216 0
-190 -215 0
-190 -241 0
-190 -240 0
-190 -239 0
-190 -238 0
-190 -266 0
-190 -265 0
-190 -291 0
-190 -290 0
-216 -215 0
-216 -241 0
-216 -240 0
-216 -239 0
-216 -238 0
-216 -266 0
-216 -265 0
-216 -291 0
-216 -290 0
-215 -241 0
-215 -240 0
-215 -239 0
-215 -238 0
-215 -266 0
-215 -265 0
-215 -291 0
-215 -290 0
-241 -240 0
-241 -239 0
-241 -238 0
-241 -266 0
-241 -265 0
-241 -291 0
-241 -290 0
-240 -239 0
-240 -238 0
-240 -266 0
-240 -265 0
-240 -291 0
-240 -290 0
-239 -238 0
-239 -266 0
-239 -265 0
-239 -291 0
-239 -290 0
-238 -266 0
-238 -265 0
-238 -291 0
-238 -290 0
-266 -265 0
-266 -291 0
-266 -290 0
-265 -291 0
-265 -290 0
-291 -290 0
-17 -16 0
-17 -15 0
-17 -14 0
-17 -13 0
-17 -12 0
-17 -42 0
-17 -41 0
-17 -40 0
-17 -39 0
-17 -38 0
-17 -37 0
-17 -67 0
-17 -66 0
-17 -92 0
-17 -91 0
-17 -90 0
-17 -89 0
-17 -117 0
-17 -116 0
-17 -115 0
-17 -114 0
-17 -113 0
-17 -112 0
-17 -142 0
-17 -141 0
-17 -140 0
-17 -139 0
-17 -138 0
-17 -137 0
-17 -167 0
-17 -166 0
-17 -165 0
-17 -164 0
-17 -192 0
-17 -191 0
-17 -217 0
-17 -216 0
-17 -242 0
-17 -241 0
-17 -240 0
-17 -239 0
-17 -267 0
-17 -266 0
-17 -292 0
-17 -291 0
-16 -15 0
-16 -14 0
-16 -13 0
-16 -12 0
-16 -42 0
-16 -41 0
-16 -40 0
-16 -39 0
-16 -38 0
-16 -37 0
-16 -67 0
-16 -66 0
-16 -92 0
-16 -91 0
-16 -90 0
-16 -89 0
-16 -117 0
-16 -116 0
-16 -115 0
-16 -114 0
-16 -113 0
-16 -112 0
-16 -142 0
-16 -141 0
-16 -140 0
-16 -139 0
-16 -138 0
-16 -137 0
-16 -167 0
-16 -166 0
-16 -165 0
-16 -164 0
-16 -192 0
-16 -191 0
-16 -217 0
-16 -216 0
-16 -242 0
-16 -241 0
-16 -240 0
-16 -239 0
-16 -267 0
-16 -266 0
-16 -292 0
-16 -291 0
-15 -14 0
-15 -13 0
-15 -12 0
-15 -42 0
-15 -41 0
-15 -40 0
-15 -39 0
-15 -38 0
-15 -37 0
-15 -67 0
-15 -66 0
-15 -92 0
-15 -91 0
-15 -90 0
-15 -89 0
-15 -117 0
-15 -116 0
-15 -115 0
-15 -114 0
-15 -113 0
-15 -112 0
-15 -142 0
-15 -141 0
-15 -140 0
-15 -139 0
-15 -138 0
-15 -137 0
-15 -167 0
-15 -166 0
-15 -165 0
-15 -164 0
-15 -192 0
-15 -191 0
-15 -217 0
-15 -216 0
-15 -242 0
-15 -241 0
-15 -240 0
-15 -239 0
-15 -267 0
-15 -266 0
-15 -292 0
-15 -291 0
-14 -13 0
-14 -12 0
-14 -42 0
-14 -41 0
-14 -40 0
-14 -39 0
-14 -38 0
-14 -37 0
-14 -67 0
-14 -66 0
-14 -92 0
-14 -91 0
-14 -90 0
-14 -89 0
-14 -117 0
-14 -116 0
-14 -115 0
-14 -114 0
-14 -113 0
-14 -112 0
-14 -142 0
-14 -141 0
-14 -140 0
-14 -139 0
-14 -138 0
-14 -137 0
-14 -167 0
-14 -166 0
-14 -165 0
-14 -164 0
-14 -192 0
-14 -191 0
-14 -217 0
-14 -216 0
-14 -242 0
-14 -241 0
-14 -240 0
-14 -239 0
-14 -267 0
-14 -266 0
-14 -292 0
-14 -291 0
-13 -12 0
-13 -42 0
-13 -41 0
-13 -40 0
-13 -39 0
-13 -38 0
-13 -37 0
-13 -67 0
-13 -66 0
-13 -92 0
-13 -91 0
-13 -90 0
-13 -89 0
-13 -117 0
-13 -116 0
-13 -115 0
-13 -114 0
-13 -113 0
-13 -112 0
-13 -142 0
-13 -141 0
-13 -140 0
-13 -139 0
-13 -138 0
-13 -137 0
-13 -167 0
-13 -166 0
-13 -165 0
-13 -164 0
-13 -192 0
-13 -191 0
-13 -217 0
-13 -216 0
-13 -242 0
-13 -241 0
-13 -240 0
-13 -239 0
-13 -267 0
-13 -266 0
-13 -292 0
-13 -291 0
-12 -42 0
-12 -41 0
-12 -40 0
-12 -39 0
-12 -38 0
-12 -37 0
-12 -67 0
-12 -66 0
-12 -92 0
-12 -91 0
-12 -90 0
-12 -89 0
-12 -117 0
-12 -116 0
-12 -115 0
-12 -114 0
-12 -113 0
-12 -112 0
-12 -142 0
-12 -141 0
-12 -140 0
-12 -139 0
-12 -138 0
-12 -137 0
-12 -167 0
-12 -166 0
-12 -165 0
-12 -164 0
-12 -192 0
-12 -191 0
-12 -217 0
-12 -216 0
-12 -242 0
-12 -241 0
-12 -240 0
-12 -239 0
-12 -267 0
-12 -266 0
-12 -292 0
-12 -291 0
-42 -41 0
-42 -40 0
-42 -39 0
-42 -38 0
-42 -37 0
-42 -67 0
-42 -66 0
-42 -92 0
-42 -91 0
-42 -90 0
-42 -89 0
-42 -117 0
-42 -116 0
-42 -115 0
-42 -114 0
-42 -113 0
-42 -112 0
-42 -142 0
-42 -141 0
-42 -140 0
-42 -139 0
-42 -138 0
-42 -137 0
-42 -167 0
-42 -166 0
-42 -165 0
-42 -164 0
-42 -192 0
-42 -191 0
-42 -217 0
-42 -216 0
-42 -242 0
-42 -241 0
-42 -240 0
-42 -239 0
-42 -267 0
-42 -266 0
-42 -292 0
-42 -291 0
-41 -40 0
-41 -39 0
-41 -38 0
-41 -37 0
-41 -67 0
-41 -66 0
-41 -92 0
-41 -91 0
-41 -90 0
-41 -89 0
-41 -117 0
-41 -116 0
-41 -115 0
-41 -114 0
-41 -113 0
-41 -112 0
-41 -142 0
-41 -141 0
-41 -140 0
-41 -139 0
-41 -138 0
-41 -137 0
-41 -167 0
-41 -166 0
-41 -165 0
-41 -164 0
-41 -192 0
-41 -191 0
-41 -217 0
-41 -216 0
-41 -242 0
-41 -241 0
-41 -240 0
-41 -239 0
-41 -267 0
-41 -266 0
-41 -292 0
-41 -291 0
-40 -39 0
-40 -38 0
-40 -37 0
-40 -67 0
-40 -66 0
-40 -92 0
-40 -91 0
-40 -90 0
-40 -89 0
-40 -117 0
-40 -116 0
-40 -115 0
-40 -114 0
-40 -113 0
-40 -112 0
-40 -142 0
-40 -141 0
-40 -140 0
-40 -139 0
-40 -138 0
-40 -137 0
-40 -167 0
-40 -166 0
-40 -165 0
-40 -164 0
-40 -192 0
-40 -191 0
-40 -217 0
-40 -216 0
-40 -242 0
-40 -241 0
-40 -240 0
-40 -239 0
-40 -267 0
-40 -266 0
-40 -292 0
-40 -291 0
-39 -38 0
-39 -37 0
-39 -67 0
-39 -66 0
-39 -92 0
-39 -91 0
-39 -90 0
-39 -89 0
-39 -117 0
-39 -116 0
-39 -115 0
-39 -114 0
-39 -113 0
-39 -112 0
-39 -142 0
-39 -141 0
-39 -140 0
-39 -139 0
-39 -138 0
-39 -137 0
-39 -167 0
-39 -166 0
-39 -165 0
-39 -164 0
-39 -192 0
-39 -191 0
-39 -217 0
-39 -216 0
-39 -242 0
-39 -241 0
-39 -240 0
-39 -239 0
-39 -267 0
-39 -266 0
-39 -292 0
-39 -291 0
-38 -37 0
-38 -67 0
-38 -66 0
-38 -92 0
-38 -91 0
-38 -90 0
-38 -89 0
-38 -117 0
-38 -116 0
-38 -115 0
-38 -114 0
-38 -113 0
-38 -112 0
-38 -142 0
-38 -141 0
-38 -140 0
-38 -139 0
-38 -138 0
-38 -137 0
-38 -167 0
-38 -166 0
-38 -165 0
-38 -164 0
-38 -192 0
-38 -191 0
-38 -217 0
-38 -216 0
-38 -242 0
-38 -241 0
-38 -240 0
-38 -239 0
-38 -267 0
-38 -266 0
-38 -292 0
-38 -291 0
-37 -67 0
-37 -66 0
-37 -92 0
-37 -91 0
-37 -90 0
-37 -89 0
-37 -117 0
-37 -116 0
-37 -115 0
-37 -114 0
-37 -113 0
-37 -112 0
-37 -142 0
-37 -141 0
-37 -140 0
-37 -139 0
-37 -138 0
-37 -137 0
-37 -167 0
-37 -166 0
-37 -165 0
-37 -164 0
-37 -192 0
-37 -191 0
-37 -217 0
-37 -216 0
-37 -242 0
-37 -241 0
-37 -240 0
-37 -239 0
-37 -267 0
-37 -266 0
-37 -292 0
-37 -291 0
-67 -66 0
-67 -92 0
-67 -91 0
-67 -90 0
-67 -89 0
-67 -117 0
-67 -116 0
-67 -115 0
-67 -114 0
-67 -113 0
-67 -112 0
-67 -142 0
-67 -141 0
-67 -140 0
-67 -139 0
-67 -138 0
-67 -137 0
-67 -167 0
-67 -166 0
-67 -165 0
-67 -164 0
-67 -192 0
-67 -191 0
-67 -217 0
-67 -216 0
-67 -242 0
-67 -241 0
-67 -240 0
-67 -239 0
-67 -267 0
-67 -266 0
-67 -292 0
-67 -291 0
-66 -92 0
-66 -91 0
-66 -90 0
-66 -89 0
-66 -117 0
-66 -116 0
-66 -115 0
-66 -114 0
-66 -113 0
-66 -112 0
-66 -142 0
-66 -141 0
-66 -140 0
-66 -139 0
-66 -138 0
-66 -137 0
-66 -167 0
-66 -166 0
-66 -165 0
-66 -164 0
-66 -192 0
-66 -191 0
-66 -217 0
-66 -216 0
-66 -242 0
-66 -241 0
-66 -240 0
-66 -239 0
-66 -267 0
-66 -266 0
-66 -292 0
-66 -291 0
-92 -91 0
-92 -90 0
-92 -89 0
-92 -117 0
-92 -116 0
-92 -115 0
-92 -114 0
-92 -113 0
-92 -112 0
-92 -142 0
-92 -141 0
-92 -140 0
-92 -139 0
-92 -138 0
-92 -137 0
-92 -167 0
-92 -166 0
-92 -165 0
-92 -164 0
-92 -192 0
-92 -191 0
-92 -217 0
-92 -216 0
-92 -242 0
-92 -241 0
-92 -240 0
-92 -239 0
-92 -267 0
-92 -266 0
-92 -292 0
-92 -291 0
-91 -90 0
-91 -89 0
-91 -117 0
-91 -116 0
-91 -115 0
-91 -114 0
-91 -113 0
-91 -112 0
-91 -142 0
-91 -141 0
-91 -140 0
-91 -139 0
-91 -138 0
-91 -137 0
-91 -167 0
-91 -166 0
-91 -165 0
-91 -164 0
-91 -192 0
-91 -191 0
-91 -217 0
-91 -216 0
-91 -242 0
-91 -241 0
-91 -240 0
-91 -239 0
-91 -267 0
-91 -266 0
-91 -292 0
-91 -291 0
-90 -89 0
-90 -117 0
-90 -116 0
-90 -115 0
-90 -114 0
-90 -113 0
-90 -112 0
-90 -142 0
-90 -141 0
-90 -140 0
-90 -139 0
-90 -138 0
-90 -137 0
-90 -167 0
-90 -166 0
-90 -165 0
-90 -164 0
-90 -192 0
-90 -191 0
-90 -217 0
-90 -216 0
-90 -242 0
-90 -241 0
-90 -240 0
-90 -239 0
-90 -267 0
-90 -266 0
-90 -292 0
-90 -291 0
-89 -117 0
-89 -116 0
-89 -115 0
-89 -114 0
-89 -113 0
-89 -112 0
-89 -142 0
-89 -141 0
-89 -140 0
-89 -139 0
-89 -138 0
-89 -137 0
-89 -167 0
-89 -166 0
-89 -165 0
-89 -164 0
-89 -192 0
-89 -191 0
-89 -217 0
-89 -216 0
-89 -242 0
-89 -241 0
-89 -240 0
-89 -239 0
-89 -267 0
-89 -266 0
-89 -292 0
-89 -291 0
-117 -116 0
-117 -115 0
-117 -114 0
-117 -113 0
-117 -112 0
-117 -142 0
-117 -141 0
-117 -140 0
-117 -139 0
-117 -138 0
-117 -137 0
-117 -167 0
-117 -166 0
-117 -165 0
-117 -164 0
-117 -192 0
-117 -191 0
-117 -217 0
-117 -216 0
-117 -242 0
-117 -241 0
-117 -240 0
-117 -239 0
-117 -267 0
-117 -266 0
-117 -292 0
-117 -291 0
-116 -115 0
-116 -114 0
-116 -113 0
-116 -112 0
-116 -142 0
-116 -141 0
-116 -140 0
-116 -139 0
-116 -138 0
-116 -137 0
-116 -167 0
-116 -166 0
-116 -165 0
-116 -164 0
-116 -192 0
-116 -191 0
-116 -217 0
-116 -216 0
-116 -242 0
-116 -241 0
-116 -240 0
-116 -239 0
-116 -267 0
-116 -266 0
-116 -292 0
-116 -291 0
-115 -114 0
-115 -113 0
-115 -112 0
-115 -142 0
-115 -141 0
-115 -140 0
-115 -139 0
-115 -138 0
-115 -137 0
-115 -167 0
-115 -166 0
-115 -165 0
-115 -164 0
-115 -192 0
-115 -191 0
-115 -217 0
-115 -216 0
-115 -242 0
-115 -241 0
-115 -240 0
-115 -239 0
-115 -267 0
-115 -266 0
-115 -292 0
-115 -291 0
-114 -113 0
-114 -112 0
-114 -142 0
-114 -141 0
-114 -140 0
-114 -139 0
-114 -138 0
-114 -137 0
-114 -167 0
-114 -166 0
-114 -165 0
-114 -164 0
-114 -192 0
-114 -191 0
-114 -217 0
-114 -216 0
-114 -242 0
-114 -241 0
-114 -240 0
-114 -239 0
-114 -267 0
-114 -266 0
-114 -292 0
-114 -291 0
-113 -112 0
-113 -142 0
-113 -141 0
-113 -140 0
-113 -139 0
-113 -138 0
-113 -137 0
-113 -167 0
-113 -166 0
-113 -165 0
-113 -164 0
-113 -192 0
-113 -191 0
-113 -217 0
-113 -216 0
-113 -242 0
-113 -241 0
-113 -240 0
-113 -239 0
-113 -267 0
-113 -266 0
-113 -292 0
-113 -291 0
-112 -142 0
-112 -141 0
-112 -140 0
-112 -139 0
-112 -138 0
-112 -137 0
-112 -167 0
-112 -166 0
-112 -165 0
-112 -164 0
-112 -192 0
-112 -191 0
-112 -217 0
-112 -216 0
-112 -242 0
-112 -241 0
-112 -240 0
-112 -239 0
-112 -267 0
-112 -266 0
-112 -292 0
-112 -291 0
-142 -141 0
-142 -140 0
-142 -139 0
-142 -138 0
-142 -137 0
-142 -167 0
-142 -166 0
-142 -165 0
-142 -164 0
-142 -192 0
-142 -191 0
-142 -217 0
-142 -216 0
-142 -242 0
-142 -241 0
-142 -240 0
-142 -239 0
-142 -267 0
-142 -266 0
-142 -292 0
-142 -291 0
-141 -140 0
-141 -139 0
-141 -138 0
-141 -137 0
-141 -167 0
-141 -166 0
-141 -165 0
-141 -164 0
-141 -192 0
-141 -191 0
-141 -217 0
-141 -216 0
-141 -242 0
-141 -241 0
-141 -240 0
-141 -239 0
-141 -267 0
-141 -266 0
-141 -292 0
-141 -291 0
-140 -139 0
-140 -138 0
-140 -137 0
-140 -167 0
-140 -166 0
-140 -165 0
-140 -164 0
-140 -192 0
-140 -191 0
-140 -217 0
-140 -216 0
-140 -242 0
-140 -241 0
-140 -240 0
-140 -239 0
-140 -267 0
-140 -266 0
-140 -292 0
-140 -291 0
-139 -138 0
-139 -137 0
-139 -167 0
-139 -166 0
-139 -165 0
-139 -164 0
-139 -192 0
-139 -191 0
-139 -217 0
-139 -216 0
-139 -242 0
-139 -241 0
-139 -240 0
-139 -239 0
-139 -267 0
-139 -266 0
-139 -292 0
-139 -291 0
-138 -137 0
-138 -167 0
-138 -166 0
-138 -165 0
-138 -164 0
-138 -192 0
-138 -191 0
-138 -217 0
-138 -216 0
-138 -242 0
-138 -241 0
-138 -240 0
-138 -239 0
-138 -267 0
-138 -266 0
-138 -292 0
-138 -291 0
-137 -167 0
-137 -166 0
-137 -165 0
-137 -164 0
-137 -192 0
-137 -191 0
-137 -217 0
-137 -216 0
-137 -242 0
-137 -241 0
-137 -240 0
-137 -239 0
-137 -267 0
-137 -266 0
-137 -292 0
-137 -291 0
-167 -166 0
-167 -165 0
-167 -164 0
-167 -192 0
-167 -191 0
-167 -217 0
-167 -216 0
-167 -242 0
-167 -241 0
-167 -240 0
-167 -239 0
-167 -267 0
-167 -266 0
-167 -292 0
-167 -291 0
-166 -165 0
-166 -164 0
-166 -192 0
-166 -191 0
-166 -217 0
-166 -216 0
-166 -242 0
-166 -241 0
-166 -240 0
-166 -239 0
-166 -267 0
-166 -266 0
-166 -292 0
-166 -291 0
-165 -164 0
-165 -192 0
-165 -191 0
-165 -217 0
-165 -216 0
-165 -242 0
-165 -241 0
-165 -240 0
-165 -239 0
-165 -267 0
-165 -266 0
-165 -292 0
-165 -291 0
-164 -192 0
-164 -191 0
-164 -217 0
-164 -216 0
-164 -242 0
-164 -241 0
-164 -240 0
-164 -239 0
-164 -267 0
-164 -266 0
-164 -292 0
-164 -291 0
-192 -191 0
-192 -217 0
-192 -216 0
-192 -242 0
-192 -241 0
-192 -240 0
-192 -239 0
-192 -267 0
-192 -266 0
-192 -292 0
-192 -291 0
-191 -217 0
-191 -216 0
-191 -242 0
-191 -241 0
-191 -240 0
-191 -239 0
-191 -267 0
-191 -266 0
-191 -292 0
-191 -291 0
-217 -216 0
-217 -242 0
-217 -241 0
-217 -240 0
-217 -239 0
-217 -267 0
-217 -266 0
-217 -292 0
-217 -291 0
-216 -242 0
-216 -241 0
-216 -240 0
-216 -239 0
-216 -267 0
-216 -266 0
-216 -292 0
-216 -291 0
-242 -241 0
-242 -240 0
-242 -239 0
-242 -267 0
-242 -266 0
-242 -292 0
-242 -291 0
-241 -240 0
-241 -239 0
-241 -267 0
-241 -266 0
-241 -292 0
-241 -291 0
-240 -239 0
-240 -267 0
-240 -266 0
-240 -292 0
-240 -291 0
-239 -267 0
-239 -266 0
-239 -292 0
-239 -291 0
-267 -266 0
-267 -292 0
-267 -291 0
-266 -292 0
-266 -291 0
-292 -291 0
-18 -17 0
-18 -16 0
-18 -15 0
-18 -14 0
-18 -13 0
-18 -43 0
-18 -42 0
-18 -41 0
-18 -40 0
-18 -39 0
-18 -38 0
-18 -68 0
-18 -67 0
-18 -93 0
-18 -92 0
-18 -91 0
-18 -90 0
-18 -118 0
-18 -117 0
-18 -116 0
-18 -115 0
-18 -114 0
-18 -113 0
-18 -143 0
-18 -142 0
-18 -141 0
-18 -140 0
-18 -139 0
-18 -138 0
-18 -168 0
-18 -167 0
-18 -166 0
-18 -165 0
-18 -193 0
-18 -192 0
-18 -218 0
-18 -217 0
-18 -243 0
-18 -242 0
-18 -241 0
-18 -240 0
-18 -268 0
-18 -267 0
-18 -293 0
-18 -292 0
-17 -16 0
-17 -15 0
-17 -14 0
-17 -13 0
-17 -43 0
-17 -42 0
-17 -41 0
-17 -40 0
-17 -39 0
-17 -38 0
-17 -68 0
-17 -67 0
-17 -93 0
-17 -92 0
-17 -91 0
-17 -90 0
-17 -118 0
-17 -117 0
-17 -116 0
-17 -115 0
-17 -114 0
-17 -113 0
-17 -143 0
-17 -142 0
-17 -141 0
-17 -140 0
-17 -139 0
-17 -138 0
-17 -168 0
-17 -167 0
-17 -166 0
-17 -165 0
-17 -193 0
-17 -192 0
-17 -218 0
-17 -217 0
-17 -243 0
-17 -242 0
-17 -241 0
-17 -240 0
-17 -268 0
-17 -267 0
-17 -293 0
-17 -292 0
-16 -15 0
-16 -14 0
-16 -13 0
-16 -43 0
-16 -42 0
-16 -41 0
-16 -40 0
-16 -39 0
-16 -38 0
-16 -68 0
-16 -67 0
-16 -93 0
-16 -92 0
-16 -91 0
-16 -90 0
-16 -118 0
-16 -117 0
-16 -116 0
-16 -115 0
-16 -114 0
-16 -113 0
-16 -143 0
-16 -142 0
-16 -141 0
-16 -140 0
-16 -139 0
-16 -138 0
-16 -168 0
-16 -167 0
-16 -166 0
-16 -165 0
-16 -193 0
-16 -192 0
-16 -218 0
-16 -217 0
-16 -243 0
-16 -242 0
-16 -241 0
-16 -240 0
-16 -268 0
-16 -267 0
-16 -293 0
-16 -292 0
-15 -14 0
-15 -13 0
-15 -43 0
-15 -42 0
-15 -41 0
-15 -40 0
-15 -39 0
-15 -38 0
-15 -68 0
-15 -67 0
-15 -93 0
-15 -92 0
-15 -91 0
-15 -90 0
-15 -118 0
-15 -117 0
-15 -116 0
-15 -115 0
-15 -114 0
-15 -113 0
-15 -143 0
-15 -142 0
-15 -141 0
-15 -140 0
-15 -139 0
-15 -138 0
-15 -168 0
-15 -167 0
-15 -166 0
-15 -165 0
-15 -193 0
-15 -192 0
-15 -218 0
-15 -217 0
-15 -243 0
-15 -242 0
-15 -241 0
-15 -240 0
-15 -268 0
-15 -267 0
-15 -293 0
-15 -292 0
-14 -13 0
-14 -43 0
-14 -42 0
-14 -41 0
-14 -40 0
-14 -39 0
-14 -38 0
-14 -68 0
-14 -67 0
-14 -93 0
-14 -92 0
-14 -91 0
-14 -90 0
-14 -118 0
-14 -117 0
-14 -116 0
-14 -115 0
-14 -114 0
-14 -113 0
-14 -143 0
-14 -142 0
-14 -141 0
-14 -140 0
-14 -139 0
-14 -138 0
-14 -168 0
-14 -167 0
-14 -166 0
-14 -165 0
-14 -193 0
-14 -192 0
-14 -218 0
-14 -217 0
-14 -243 0
-14 -242 0
-14 -241 0
-14 -240 0
-14 -268 0
-14 -267 0
-14 -293 0
-14 -292 0
-13 -43 0
-13 -42 0
-13 -41 0
-13 -40 0
-13 -39 0
-13 -38 0
-13 -68 0
-13 -67 0
-13 -93 0
-13 -92 0
-13 -91 0
-13 -90 0
-13 -118 0
-13 -117 0
-13 -116 0
-13 -115 0
-13 -114 0
-13 -113 0
-13 -143 0
-13 -142 0
-13 -141 0
-13 -140 0
-13 -139 0
-13 -138 0
-13 -168 0
-13 -167 0
-13 -166 0
-13 -165 0
-13 -193 0
-13 -192 0
-13 -218 0
-13 -217 0
-13 -243 0
-13 -242 0
-13 -241 0
-13 -240 0
-13 -268 0
-13 -267 0
-13 -293 0
-13 -292 0
-43 -42 0
-43 -41 0
-43 -40 0
-43 -39 0
-43 -38 0
-43 -68 0
-43 -67 0
-43 -93 0
-43 -92 0
-43 -91 0
-43 -90 0
-43 -118 0
-43 -117 0
-43 -116 0
-43 -115 0
-43 -114 0
-43 -113 0
-43 -143 0
-43 -142 0
-43 -141 0
-43 -140 0
-43 -139 0
-43 -138 0
-43 -168 0
-43 -167 0
-43 -166 0
-43 -165 0
-43 -193 0
-43 -192 0
-43 -218 0
-43 -217 0
-43 -243 0
-43 -242 0
-43 -241 0
-43 -240 0
-43 -268 0
-43 -267 0
-43 -293 0
-43 -292 0
-42 -41 0
-42 -40 0
-42 -39 0
-42 -38 0
-42 -68 0
-42 -67 0
-42 -93 0
-42 -92 0
-42 -91 0
-42 -90 0
-42 -118 0
-42 -117 0
-42 -116 0
-42 -115 0
-42 -114 0
-42 -113 0
-42 -143 0
-42 -142 0
-42 -141 0
-42 -140 0
-42 -139 0
-42 -138 0
-42 -168 0
-42 -167 0
-42 -166 0
-42 -165 0
-42 -193 0
-42 -192 0
-42 -218 0
-42 -217 0
-42 -243 0
-42 -242 0
-42 -241 0
-42 -240 0
-42 -268 0
-42 -267 0
-42 -293 0
-42 -292 0
-41 -40 0
-41 -39 0
-41 -38 0
-41 -68 0
-41 -67 0
-41 -93 0
-41 -92 0
-41 -91 0
-41 -90 0
-41 -118 0
-41 -117 0
-41 -116 0
-41 -115 0
-41 -114 0
-41 -113 0
-41 -143 0
-41 -142 0
-41 -141 0
-41 -140 0
-41 -139 0
-41 -138 0
-41 -168 0
-41 -167 0
-41 -166 0
-41 -165 0
-41 -193 0
-41 -192 0
-41 -218 0
-41 -217 0
-41 -243 0
-41 -242 0
-41 -241 0
-41 -240 0
-41 -268 0
-41 -267 0
-41 -293 0
-41 -292 0
-40 -39 0
-40 -38 0
-40 -68 0
-40 -67 0
-40 -93 0
-40 -92 0
-40 -91 0
-40 -90 0
-40 -118 0
-40 -117 0
-40 -116 0
-40 -115 0
-40 -114 0
-40 -113 0
-40 -143 0
-40 -142 0
-40 -141 0
-40 -140 0
-40 -139 0
-40 -138 0
-40 -168 0
-40 -167 0
-40 -166 0
-40 -165 0
-40 -193 0
-40 -192 0
-40 -218 0
-40 -217 0
-40 -243 0
-40 -242 0
-40 -241 0
-40 -240 0
-40 -268 0
-40 -267 0
-40 -293 0
-40 -292 0
-39 -38 0
-39 -68 0
-39 -67 0
-39 -93 0
-39 -92 0
-39 -91 0
-39 -90 0
-39 -118 0
-39 -117 0
-39 -116 0
-39 -115 0
-39 -114 0
-39 -113 0
-39 -143 0
-39 -142 0
-39 -141 0
-39 -140 0
-39 -139 0
-39 -138 0
-39 -168 0
-39 -167 0
-39 -166 0
-39 -165 0
-39 -193 0
-39 -192 0
-39 -218 0
-39 -217 0
-39 -243 0
-39 -242 0
-39 -241 0
-39 -240 0
-39 -268 0
-39 -267 0
-39 -293 0
-39 -292 0
-38 -68 0
-38 -67 0
-38 -93 0
-38 -92 0
-38 -91 0
-38 -90 0
-38 -118 0
-38 -117 0
-38 -116 0
-38 -115 0
-38 -114 0
-38 -113 0
-38 -143 0
-38 -142 0
-38 -141 0
-38 -140 0
-38 -139 0
-38 -138 0
-38 -168 0
-38 -167 0
-38 -166 0
-38 -165 0
-38 -193 0
-38 -192 0
-38 -218 0
-38 -217 0
-38 -243 0
-38 -242 0
-38 -241 0
-38 -240 0
-38 -268 0
-38 -267 0
-38 -293 0
-38 -292 0
-68 -67 0
-68 -93 0
-68 -92 0
-68 -91 0
-68 -90 0
-68 -118 0
-68 -117 0
-68 -116 0
-68 -115 0
-68 -114 0
-68 -113 0
-68 -143 0
-68 -142 0
-68 -141 0
-68 -140 0
-68 -139 0
-68 -138 0
-68 -168 0
-68 -167 0
-68 -166 0
-68 -165 0
-68 -193 0
-68 -192 0
-68 -218 0
-68 -217 0
-68 -243 0
-68 -242 0
-68 -241 0
-68 -240 0
-68 -268 0
-68 -267 0
-68 -293 0
-68 -292 0
-67 -93 0
-67 -92 0
-67 -91 0
-67 -90 0
-67 -118 0
-67 -117 0
-67 -116 0
-67 -115 0
-67 -114 0
-67 -113 0
-67 -143 0
-67 -142 0
-67 -141 0
-67 -140 0
-67 -139 0
-67 -138 0
-67 -168 0
-67 -167 0
-67 -166 0
-67 -165 0
-67 -193 0
-67 -192 0
-67 -218 0
-67 -217 0
-67 -243 0
-67 -242 0
-67 -241 0
-67 -240 0
-67 -268 0
-67 -267 0
-67 -293 0
-67 -292 0
-93 -92 0
-93 -91 0
-93 -90 0
-93 -118 0
-93 -117 0
-93 -116 0
-93 -115 0
-93 -114 0
-93 -113 0
-93 -143 0
-93 -142 0
-93 -141 0
-93 -140 0
-93 -139 0
-93 -138 0
-93 -168 0
-93 -167 0
-93 -166 0
-93 -165 0
-93 -193 0
-93 -192 0
-93 -218 0
-93 -217 0
-93 -243 0
-93 -242 0
-93 -241 0
-93 -240 0
-93 -268 0
-93 -267 0
-93 -293 0
-93 -292 0
-92 -91 0
-92 -90 0
-92 -118 0
-92 -117 0
-92 -116 0
-92 -115 0
-92 -114 0
-92 -113 0
-92 -143 0
-92 -142 0
-92 -141 0
-92 -140 0
-92 -139 0
-92 -138 0
-92 -168 0
-92 -167 0
-92 -166 0
-92 -165 0
-92 -193 0
-92 -192 0
-92 -218 0
-92 -217 0
-92 -243 0
-92 -242 0
-92 -241 0
-92 -240 0
-92 -268 0
-92 -267 0
-92 -293 0
-92 -292 0
-91 -90 0
-91 -118 0
-91 -117 0
-91 -116 0
-91 -115 0
-91 -114 0
-91 -113 0
-91 -143 0
-91 -142 0
-91 -141 0
-91 -140 0
-91 -139 0
-91 -138 0
-91 -168 0
-91 -167 0
-91 -166 0
-91 -165 0
-91 -193 0
-91 -192 0
-91 -218 0
-91 -217 0
-91 -243 0
-91 -242 0
-91 -241 0
-91 -240 0
-91 -268 0
-91 -267 0
-91 -293 0
-91 -292 0
-90 -118 0
-90 -117 0
-90 -116 0
-90 -115 0
-90 -114 0
-90 -113 0
-90 -143 0
-90 -142 0
-90 -141 0
-90 -140 0
-90 -139 0
-90 -138 0
-90 -168 0
-90 -167 0
-90 -166 0
-90 -165 0
-90 -193 0
-90 -192 0
-90 -218 0
-90 -217 0
-90 -243 0
-90 -242 0
-90 -241 0
-90 -240 0
-90 -268 0
-90 -267 0
-90 -293 0
-90 -292 0
-118 -117 0
-118 -116 0
-118 -115 0
-118 -114 0
-118 -113 0
-118 -143 0
-118 -142 0
-118 -141 0
-118 -140 0
-118 -139 0
-118 -138 0
-118 -168 0
-118 -167 0
-118 -166 0
-118 -165 0
-118 -193 0
-118 -192 0
-118 -218 0
-118 -217 0
-118 -243 0
-118 -242 0
-118 -241 0
-118 -240 0
-118 -268 0
-118 -267 0
-118 -293 0
-118 -292 0
-117 -116 0
-117 -115 0
-117 -114 0
-117 -113 0
-117 -143 0
-117 -142 0
-117 -141 0
-117 -140 0
-117 -139 0
-117 -138 0
-117 -168 0
-117 -167 0
-117 -166 0
-117 -165 0
-117 -193 0
-117 -192 0
-117 -218 0
-117 -217 0
-117 -243 0
-117 -242 0
-117 -241 0
-117 -240 0
-117 -268 0
-117 -267 0
-117 -293 0
-117 -292 0
-116 -115 0
-116 -114 0
-116 -113 0
-116 -143 0
-116 -142 0
-116 -141 0
-116 -140 0
-116 -139 0
-116 -138 0
-116 -168 0
-116 -167 0
-116 -166 0
-116 -165 0
-116 -193 0
-116 -192 0
-116 -218 0
-116 -217 0
-116 -243 0
-116 -242 0
-116 -241 0
-116 -240 0
-116 -268 0
-116 -267 0
-116 -293 0
-116 -292 0
-115 -114 0
-115 -113 0
-115 -143 0
-115 -142 0
-115 -141 0
-115 -140 0
-115 -139 0
-115 -138 0
-115 -168 0
-115 -167 0
-115 -166 0
-115 -165 0
-115 -193 0
-115 -192 0
-115 -218 0
-115 -217 0
-115 -243 0
-115 -242 0
-115 -241 0
-115 -240 0
-115 -268 0
-115 -267 0
-115 -293 0
-115 -292 0
-114 -113 0
-114 -143 0
-114 -142 0
-114 -141 0
-114 -140 0
-114 -139 0
-114 -138 0
-114 -168 0
-114 -167 0
-114 -166 0
-114 -165 0
-114 -193 0
-114 -192 0
-114 -218 0
-114 -217 0
-114 -243 0
-114 -242 0
-114 -241 0
-114 -240 0
-114 -268 0
-114 -267 0
-114 -293 0
-114 -292 0
-113 -143 0
-113 -142 0
-113 -141 0
-113 -140 0
-113 -139 0
-113 -138 0
-113 -168 0
-113 -167 0
-113 -166 0
-113 -165 0
-113 -193 0
-113 -192 0
-113 -218 0
-113 -217 0
-113 -243 0
-113 -242 0
-113 -241 0
-113 -240 0
-113 -268 0
-113 -267 0
-113 -293 0
-113 -292 0
-143 -142 0
-143 -141 0
-143 -140 0
-143 -139 0
-143 -138 0
-143 -168 0
-143 -167 0
-143 -166 0
-143 -165 0
-143 -193 0
-143 -192 0
-143 -218 0
-143 -217 0
-143 -243 0
-143 -242 0
-143 -241 0
-143 -240 0
-143 -268 0
-143 -267 0
-143 -293 0
-143 -292 0
-142 -141 0
-142 -140 0
-142 -139 0
-142 -138 0
-142 -168 0
-142 -167 0
-142 -166 0
-142 -165 0
-142 -193 0
-142 -192 0
-142 -218 0
-142 -217 0
-142 -243 0
-142 -242 0
-142 -241 0
-142 -240 0
-142 -268 0
-142 -267 0
-142 -293 0
-142 -292 0
-141 -140 0
-141 -139 0
-141 -138 0
-141 -168 0
-141 -167 0
-141 -166 0
-141 -165 0
-141 -193 0
-141 -192 0
-141 -218 0
-141 -217 0
-141 -243 0
-141 -242 0
-141 -241 0
-141 -240 0
-141 -268 0
-141 -267 0
-141 -293 0
-141 -292 0
-140 -139 0
-140 -138 0
-140 -168 0
-140 -167 0
-140 -166 0
-140 -165 0
-140 -193 0
-140 -192 0
-140 -218 0
-140 -217 0
-140 -243 0
-140 -242 0
-140 -241 0
-140 -240 0
-140 -268 0
-140 -267 0
-140 -293 0
-140 -292 0
-139 -138 0
-139 -168 0
-139 -167 0
-139 -166 0
-139 -165 0
-139 -193 0
-139 -192 0
-139 -218 0
-139 -217 0
-139 -243 0
-139 -242 0
-139 -241 0
-139 -240 0
-139 -268 0
-139 -267 0
-139 -293 0
-139 -292 0
-138 -168 0
-138 -167 0
-138 -166 0
-138 -165 0
-138 -193 0
-138 -192 0
-138 -218 0
-138 -217 0
-138 -243 0
-138 -242 0
-138 -241 0
-138 -240 0
-138 -268 0
-138 -267 0
-138 -293 0
-138 -292 0
-168 -167 0
-168 -166 0
-168 -165 0
-168 -193 0
-168 -192 0
-168 -218 0
-168 -217 0
-168 -243 0
-168 -242 0
-168 -241 0
-168 -240 0
-168 -268 0
-168 -267 0
-168 -293 0
-168 -292 0
-167 -166 0
-167 -165 0
-167 -193 0
-167 -192 0
-167 -218 0
-167 -217 0
-167 -243 0
-167 -242 0
-167 -241 0
-167 -240 0
-167 -268 0
-167 -267 0
-167 -293 0
-167 -292 0
-166 -165 0
-166 -193 0
-166 -192 0
-166 -218 0
-166 -217 0
-166 -243 0
-166 -242 0
-166 -241 0
-166 -240 0
-166 -268 0
-166 -267 0
-166 -293 0
-166 -292 0
-165 -193 0
-165 -192 0
-165 -218 0
-165 -217 0
-165 -243 0
-165 -242 0
-165 -241 0
-165 -240 0
-165 -268 0
-165 -267 0
-165 -293 0
-165 -292 0
-193 -192 0
-193 -218 0
-193 -217 0
-193 -243 0
-193 -242 0
-193 -241 0
-193 -240 0
-193 -268 0
-193 -267 0
-193 -293 0
-193 -292 0
-192 -218 0
-192 -217 0
-192 -243 0
-192 -242 0
-192 -241 0
-192 -240 0
-192 -268 0
-192 -267 0
-192 -293 0
-192 -292 0
-218 -217 0
-218 -243 0
-218 -242 0
-218 -241 0
-218 -240 0
-218 -268 0
-218 -267 0
-218 -293 0
-218 -292 0
-217 -243 0
-217 -242 0
-217 -241 0
-217 -240 0
-217 -268 0
-217 -267 0
-217 -293 0
-217 -292 0
-243 -242 0
-243 -241 0
-243 -240 0
-243 -268 0
-243 -267 0
-243 -293 0
-243 -292 0
-242 -241 0
-242 -240 0
-242 -268 0
-242 -267 0
-242 -293 0
-242 -292 0
-241 -240 0
-241 -268 0
-241 -267 0
-241 -293 0
-241 -292 0
-240 -268 0
-240 -267 0
-240 -293 0
-240 -292 0
-268 -267 0
-268 -293 0
-268 -292 0
-267 -293 0
-267 -292 0
-293 -292 0
-19 -18 0
-19 -17 0
-19 -16 0
-19 -15 0
-19 -14 0
-19 -44 0
-19 -43 0
-19 -42 0
-19 -41 0
-19 -40 0
-19 -39 0
-19 -69 0
-19 -68 0
-19 -94 0
-19 -93 0
-19 -92 0
-19 -91 0
-19 -119 0
-19 -118 0
-19 -117 0
-19 -116 0
-19 -115 0
-19 -114 0
-19 -144 0
-19 -143 0
-19 -142 0
-19 -141 0
-19 -140 0
-19 -139 0
-19 -169 0
-19 -168 0
-19 -167 0
-19 -166 0
-19 -194 0
-19 -193 0
-19 -219 0
-19 -218 0
-19 -244 0
-19 -243 0
-19 -242 0
-19 -241 0
-19 -269 0
-19 -268 0
-19 -294 0
-19 -293 0
-18 -17 0
-18 -16 0
-18 -15 0
-18 -14 0
-18 -44 0
-18 -43 0
-18 -42 0
-18 -41 0
-18 -40 0
-18 -39 0
-18 -69 0
-18 -68 0
-18 -94 0
-18 -93 0
-18 -92 0
-18 -91 0
-18 -119 0
-18 -118 0
-18 -117 0
-18 -116 0
-18 -115 0
-18 -114 0
-18 -144 0
-18 -143 0
-18 -142 0
-18 -141 0
-18 -140 0
-18 -139 0
-18 -169 0
-18 -168 0
-18 -167 0
-18 -166 0
-18 -194 0
-18 -193 0
-18 -219 0
-18 -218 0
-18 -244 0
-18 -243 0
-18 -242 0
-18 -241 0
-18 -269 0
-18 -268 0
-18 -294 0
-18 -293 0
-17 -16 0
-17 -15 0
-17 -14 0
-17 -44 0
-17 -43 0
-17 -42 0
-17 -41 0
-17 -40 0
-17 -39 0
-17 -69 0
-17 -68 0
-17 -94 0
-17 -93 0
-17 -92 0
-17 -91 0
-17 -119 0
-17 -118 0
-17 -117 0
-17 -116 0
-17 -115 0
-17 -114 0
-17 -144 0
-17 -143 0
-17 -142 0
-17 -141 0
-17 -140 0
-17 -139 0
-17 -169 0
-17 -168 0
-17 -167 0
-17 -166 0
-17 -194 0
-17 -193 0
-17 -219 0
-17 -218 0
-17 -244 0
-17 -243 0
-17 -242 0
-17 -241 0
-17 -269 0
-17 -268 0
-17 -294 0
-17 -293 0
-16 -15 0
-16 -14 0
-16 -44 0
-16 -43 0
-16 -42 0
-16 -41 0
-16 -40 0
-16 -39 0
-16 -69 0
-16 -68 0
-16 -94 0
-16 -93 0
-16 -92 0
-16 -91 0
-16 -119 0
-16 -118 0
-16 -117 0
-16 -116 0
-16 -115 0
-16 -114 0
-16 -144 0
-16 -143 0
-16 -142 0
-16 -141 0
-16 -140 0
-16 -139 0
-16 -169 0
-16 -168 0
-16 -167 0
-16 -166 0
-16 -194 0
-16 -193 0
-16 -219 0
-16 -218 0
-16 -244 0
-16 -243 0
-16 -242 0
-16 -241 0
-16 -269 0
-16 -268 0
-16 -294 0
-16 -293 0
-15 -14 0
-15 -44 0
-15 -43 0
-15 -42 0
-15 -41 0
-15 -40 0
-15 -39 0
-15 -69 0
-15 -68 0
-15 -94 0
-15 -93 0
-15 -92 0
-15 -91 0
-15 -119 0
-15 -118 0
-15 -117 0
-15 -116 0
-15 -115 0
-15 -114 0
-15 -144 0
-15 -143 0
-15 -142 0
-15 -141 0
-15 -140 0
-15 -139 0
-15 -169 0
-15 -168 0
-15 -167 0
-15 -166 0
-15 -194 0
-15 -193 0
-15 -219 0
-15 -218 0
-15 -244 0
-15 -243 0
-15 -242 0
-15 -241 0
-15 -269 0
-15 -268 0
-15 -294 0
-15 -293 0
-14 -44 0
-14 -43 0
-14 -42 0
-14 -41 0
-14 -40 0
-14 -39 0
-14 -69 0
-14 -68 0
-14 -94 0
-14 -93 0
-14 -92 0
-14 -91 0
-14 -119 0
-14 -118 0
-14 -117 0
-14 -116 0
-14 -115 0
-14 -114 0
-14 -144 0
-14 -143 0
-14 -142 0
-14 -141 0
-14 -140 0
-14 -139 0
-14 -169 0
-14 -168 0
-14 -167 0
-14 -166 0
-14 -194 0
-14 -193 0
-14 -219 0
-14 -218 0
-14 -244 0
-14 -243 0
-14 -242 0
-14 -241 0
-14 -269 0
-14 -268 0
-14 -294 0
-14 -293 0
-44 -43 0
-44 -42 0
-44 -41 0
-44 -40 0
-44 -39 0
-44 -69 0
-44 -68 0
-44 -94 0
-44 -93 0
-44 -92 0
-44 -91 0
-44 -119 0
-44 -118 0
-44 -117 0
-44 -116 0
-44 -115 0
-44 -114 0
-44 -144 0
-44 -143 0
-44 -142 0
-44 -141 0
-44 -140 0
-44 -139 0
-44 -169 0
-44 -168 0
-44 -167 0
-44 -166 0
-44 -194 0
-44 -193 0
-44 -219 0
-44 -218 0
-44 -244 0
-44 -243 0
-44 -242 0
-44 -241 0
-44 -269 0
-44 -268 0
-44 -294 0
-44 -293 0
-43 -42 0
-43 -41 0
-43 -40 0
-43 -39 0
-43 -69 0
-43 -68 0
-43 -94 0
-43 -93 0
-43 -92 0
-43 -91 0
-43 -119 0
-43 -118 0
-43 -117 0
-43 -116 0
-43 -115 0
-43 -114 0
-43 -144 0
-43 -143 0
-43 -142 0
-43 -141 0
-43 -140 0
-43 -139 0
-43 -169 0
-43 -168 0
-43 -167 0
-43 -166 0
-43 -194 0
-43 -193 0
-43 -219 0
-43 -218 0
-43 -244 0
-43 -243 0
-43 -242 0
-43 -241 0
-43 -269 0
-43 -268 0
-43 -294 0
-43 -293 0
-42 -41 0
-42 -40 0
-42 -39 0
-42 -69 0
-42 -68 0
-42 -94 0
-42 -93 0
-42 -92 0
-42 -91 0
-42 -119 0
-42 -118 0
-42 -117 0
-42 -116 0
-42 -115 0
-42 -114 0
-42 -144 0
-42 -143 0
-42 -142 0
-42 -141 0
-42 -140 0
-42 -139 0
-42 -169 0
-42 -168 0
-42 -167 0
-42 -166 0
-42 -194 0
-42 -193 0
-42 -219 0
-42 -218 0
-42 -244 0
-42 -243 0
-42 -242 0
-42 -241 0
-42 -269 0
-42 -268 0
-42 -294 0
-42 -293 0
-41 -40 0
-41 -39 0
-41 -69 0
-41 -68 0
-41 -94 0
-41 -93 0
-41 -92 0
-41 -91 0
-41 -119 0
-41 -118 0
-41 -117 0
-41 -116 0
-41 -115 0
-41 -114 0
-41 -144 0
-41 -143 0
-41 -142 0
-41 -141 0
-41 -140 0
-41 -139 0
-41 -169 0
-41 -168 0
-41 -167 0
-41 -166 0
-41 -194 0
-41 -193 0
-41 -219 0
-41 -218 0
-41 -244 0
-41 -243 0
-41 -242 0
-41 -241 0
-41 -269 0
-41 -268 0
-41 -294 0
-41 -293 0
-40 -39 0
-40 -69 0
-40 -68 0
-40 -94 0
-40 -93 0
-40 -92 0
-40 -91 0
-40 -119 0
-40 -118 0
-40 -117 0
-40 -116 0
-40 -115 0
-40 -114 0
-40 -144 0
-40 -143 0
-40 -142 0
-40 -141 0
-40 -140 0
-40 -139 0
-40 -169 0
-40 -168 0
-40 -167 0
-40 -166 0
-40 -194 0
-40 -193 0
-40 -219 0
-40 -218 0
-40 -244 0
-40 -243 0
-40 -242 0
-40 -241 0
-40 -269 0
-40 -268 0
-40 -294 0
-40 -293 0
-39 -69 0
-39 -68 0
-39 -94 0
-39 -93 0
-39 -92 0
-39 -91 0
-39 -119 0
-39 -118 0
-39 -117 0
-39 -116 0
-39 -115 0
-39 -114 0
-39 -144 0
-39 -143 0
-39 -142 0
-39 -141 0
-39 -140 0
-39 -139 0
-39 -169 0
-39 -168 0
-39 -167 0
-39 -166 0
-39 -194 0
-39 -193 0
-39 -219 0
-39 -218 0
-39 -244 0
-39 -243 0
-39 -242 0
-39 -241 0
-39 -269 0
-39 -268 0
-39 -294 0
-39 -293 0
-69 -68 0
-69 -94 0
-69 -93 0
-69 -92 0
-69 -91 0
-69 -119 0
-69 -118 0
-69 -117 0
-69 -116 0
-69 -115 0
-69 -114 0
-69 -144 0
-69 -143 0
-69 -142 0
-69 -141 0
-69 -140 0
-69 -139 0
-69 -169 0
-69 -168 0
-69 -167 0
-69 -166 0
-69 -194 0
-69 -193 0
-69 -219 0
-69 -218 0
-69 -244 0
-69 -243 0
-69 -242 0
-69 -241 0
-69 -269 0
-69 -268 0
-69 -294 0
-69 -293 0
-68 -94 0
-68 -93 0
-68 -92 0
-68 -91 0
-68 -119 0
-68 -118 0
-68 -117 0
-68 -116 0
-68 -115 0
-68 -114 0
-68 -144 0
-68 -143 0
-68 -142 0
-68 -141 0
-68 -140 0
-68 -139 0
-68 -169 0
-68 -168 0
-68 -167 0
-68 -166 0
-68 -194 0
-68 -193 0
-68 -219 0
-68 -218 0
-68 -244 0
-68 -243 0
-68 -242 0
-68 -241 0
-68 -269 0
-68 -268 0
-68 -294 0
-68 -293 0
-94 -93 0
-94 -92 0
-94 -91 0
-94 -119 0
-94 -118 0
-94 -117 0
-94 -116 0
-94 -115 0
-94 -114 0
-94 -144 0
-94 -143 0
-94 -142 0
-94 -141 0
-94 -140 0
-94 -139 0
-94 -169 0
-94 -168 0
-94 -167 0
-94 -166 0
-94 -194 0
-94 -193 0
-94 -219 0
-94 -218 0
-94 -244 0
-94 -243 0
-94 -242 0
-94 -241 0
-94 -269 0
-94 -268 0
-94 -294 0
-94 -293 0
-93 -92 0
-93 -91 0
-93 -119 0
-93 -118 0
-93 -117 0
-93 -116 0
-93 -115 0
-93 -114 0
-93 -144 0
-93 -143 0
-93 -142 0
-93 -141 0
-93 -140 0
-93 -139 0
-93 -169 0
-93 -168 0
-93 -167 0
-93 -166 0
-93 -194 0
-93 -193 0
-93 -219 0
-93 -218 0
-93 -244 0
-93 -243 0
-93 -242 0
-93 -241 0
-93 -269 0
-93 -268 0
-93 -294 0
-93 -293 0
-92 -91 0
-92 -119 0
-92 -118 0
-92 -117 0
-92 -116 0
-92 -115 0
-92 -114 0
-92 -144 0
-92 -143 0
-92 -142 0
-92 -141 0
-92 -140 0
-92 -139 0
-92 -169 0
-92 -168 0
-92 -167 0
-92 -166 0
-92 -194 0
-92 -193 0
-92 -219 0
-92 -218 0
-92 -244 0
-92 -243 0
-92 -242 0
-92 -241 0
-92 -269 0
-92 -268 0
-92 -294 0
-92 -293 0
-91 -119 0
-91 -118 0
-91 -117 0
-91 -116 0
-91 -115 0
-91 -114 0
-91 -144 0
-91 -143 0
-91 -142 0
-91 -141 0
-91 -140 0
-91 -139 0
-91 -169 0
-91 -168 0
-91 -167 0
-91 -166 0
-91 -194 0
-91 -193 0
-91 -219 0
-91 -218 0
-91 -244 0
-91 -243 0
-91 -242 0
-91 -241 0
-91 -269 0
-91 -268 0
-91 -294 0
-91 -293 0
-119 -118 0
-119 -117 0
-119 -116 0
-119 -115 0
-119 -114 0
-119 -144 0
-119 -143 0
-119 -142 0
-119 -141 0
-119 -140 0
-119 -139 0
-119 -169 0
-119 -168 0
-119 -167 0
-119 -166 0
-119 -194 0
-119 -193 0
-119 -219 0
-119 -218 0
-119 -244 0
-119 -243 0
-119 -242 0
-119 -241 0
-119 -269 0
-119 -268 0
-119 -294 0
-119 -293 0
-118 -117 0
-118 -116 0
-118 -115 0
-118 -114 0
-118 -144 0
-118 -143 0
-118 -142 0
-118 -141 0
-118 -140 0
-118 -139 0
-118 -169 0
-118 -168 0
-118 -167 0
-118 -166 0
-118 -194 0
-118 -193 0
-118 -219 0
-118 -218 0
-118 -244 0
-118 -243 0
-118 -242 0
-118 -241 0
-118 -269 0
-118 -268 0
-118 -294 0
-118 -293 0
-117 -116 0
-117 -115 0
-117 -114 0
-117 -144 0
-117 -143 0
-117 -142 0
-117 -141 0
-117 -140 0
-117 -139 0
-117 -169 0
-117 -168 0
-117 -167 0
-117 -166 0
-117 -194 0
-117 -193 0
-117 -219 0
-117 -218 0
-117 -244 0
-117 -243 0
-117 -242 0
-117 -241 0
-117 -269 0
-117 -268 0
-117 -294 0
-117 -293 0
-116 -115 0
-116 -114 0
-116 -144 0
-116 -143 0
-116 -142 0
-116 -141 0
-116 -140 0
-116 -139 0
-116 -169 0
-116 -168 0
-116 -167 0
-116 -166 0
-116 -194 0
-116 -193 0
-116 -219 0
-116 -218 0
-116 -244 0
-116 -243 0
-116 -242 0
-116 -241 0
-116 -269 0
-116 -268 0
-116 -294 0
-116 -293 0
-115 -114 0
-115 -144 0
-115 -143 0
-115 -142 0
-115 -141 0
-115 -140 0
-115 -139 0
-115 -169 0
-115 -168 0
-115 -167 0
-115 -166 0
-115 -194 0
-115 -193 0
-115 -219 0
-115 -218 0
-115 -244 0
-115 -243 0
-115 -242 0
-115 -241 0
-115 -269 0
-115 -268 0
-115 -294 0
-115 -293 0
-114 -144 0
-114 -143 0
-114 -142 0
-114 -141 0
-114 -140 0
-114 -139 0
-114 -169 0
-114 -168 0
-114 -167 0
-114 -166 0
-114 -194 0
-114 -193 0
-114 -219 0
-114 -218 0
-114 -244 0
-114 -243 0
-114 -242 0
-114 -241 0
-114 -269 0
-114 -268 0
-114 -294 0
-114 -293 0
-144 -143 0
-144 -142 0
-144 -141 0
-144 -140 0
-144 -139 0
-144 -169 0
-144 -168 0
-144 -167 0
-144 -166 0
-144 -194 0
-144 -193 0
-144 -219 0
-144 -218 0
-144 -244 0
-144 -243 0
-144 -242 0
-144 -241 0
-144 -269 0
-144 -268 0
-144 -294 0
-144 -293 0
-143 -142 0
-143 -141 0
-143 -140 0
-143 -139 0
-143 -169 0
-143 -168 0
-143 -167 0
-143 -166 0
-143 -194 0
-143 -193 0
-143 -219 0
-143 -218 0
-143 -244 0
-143 -243 0
-143 -242 0
-143 -241 0
-143 -269 0
-143 -268 0
-143 -294 0
-143 -293 0
-142 -141 0
-142 -140 0
-142 -139 0
-142 -169 0
-142 -168 0
-142 -167 0
-142 -166 0
-142 -194 0
-142 -193 0
-142 -219 0
-142 -218 0
-142 -244 0
-142 -243 0
-142 -242 0
-142 -241 0
-142 -269 0
-142 -268 0
-142 -294 0
-142 -293 0
-141 -140 0
-141 -139 0
-141 -169 0
-141 -168 0
-141 -167 0
-141 -166 0
-141 -194 0
-141 -193 0
-141 -219 0
-141 -218 0
-141 -244 0
-141 -243 0
-141 -242 0
-141 -241 0
-141 -269 0
-141 -268 0
-141 -294 0
-141 -293 0
-140 -139 0
-140 -169 0
-140 -168 0
-140 -167 0
-140 -166 0
-140 -194 0
-140 -193 0
-140 -219 0
-140 -218 0
-140 -244 0
-140 -243 0
-140 -242 0
-140 -241 0
-140 -269 0
-140 -268 0
-140 -294 0
-140 -293 0
-139 -169 0
-139 -168 0
-139 -167 0
-139 -166 0
-139 -194 0
-139 -193 0
-139 -219 0
-139 -218 0
-139 -244 0
-139 -243 0
-139 -242 0
-139 -241 0
-139 -269 0
-139 -268 0
-139 -294 0
-139 -293 0
-169 -168 0
-169 -167 0
-169 -166 0
-169 -194 0
-169 -193 0
-169 -219 0
-169 -218 0
-169 -244 0
-169 -243 0
-169 -242 0
-169 -241 0
-169 -269 0
-169 -268 0
-169 -294 0
-169 -293 0
-168 -167 0
-168 -166 0
-168 -194 0
-168 -193 0
-168 -219 0
-168 -218 0
-168 -244 0
-168 -243 0
-168 -242 0
-168 -241 0
-168 -269 0
-168 -268 0
-168 -294 0
-168 -293 0
-167 -166 0
-167 -194 0
-167 -193 0
-167 -219 0
-167 -218 0
-167 -244 0
-167 -243 0
-167 -242 0
-167 -241 0
-167 -269 0
-167 -268 0
-167 -294 0
-167 -293 0
-166 -194 0
-166 -193 0
-166 -219 0
-166 -218 0
-166 -244 0
-166 -243 0
-166 -242 0
-166 -241 0
-166 -269 0
-166 -268 0
-166 -294 0
-166 -293 0
-194 -193 0
-194 -219 0
-194 -218 0
-194 -244 0
-194 -243 0
-194 -242 0
-194 -241 0
-194 -269 0
-194 -268 0
-194 -294 0
-194 -293 0
-193 -219 0
-193 -218 0
-193 -244 0
-193 -243 0
-193 -242 0
-193 -241 0
-193 -269 0
-193 -268 0
-193 -294 0
-193 -293 0
-219 -218 0
-219 -244 0
-219 -243 0
-219 -242 0
-219 -241 0
-219 -269 0
-219 -268 0
-219 -294 0
-219 -293 0
-218 -244 0
-218 -243 0
-218 -242 0
-218 -241 0
-218 -269 0
-218 -268 0
-218 -294 0
-218 -293 0
-244 -243 0
-244 -242 0
-244 -241 0
-244 -269 0
-244 -268 0
-244 -294 0
-244 -293 0
-243 -242 0
-243 -241 0
-243 -269 0
-243 -268 0
-243 -294 0
-243 -293 0
-242 -241 0
-242 -269 0
-242 -268 0
-242 -294 0
-242 -293 0
-241 -269 0
-241 -268 0
-241 -294 0
-241 -293 0
-269 -268 0
-269 -294 0
-269 -293 0
-268 -294 0
-268 -293 0
-294 -293 0
-20 -19 0
-20 -18 0
-20 -17 0
-20 -16 0
-20 -15 0
-20 -45 0
-20 -44 0
-20 -43 0
-20 -42 0
-20 -41 0
-20 -40 0
-20 -70 0
-20 -69 0
-20 -95 0
-20 -94 0
-20 -93 0
-20 -92 0
-20 -120 0
-20 -119 0
-20 -118 0
-20 -117 0
-20 -116 0
-20 -115 0
-20 -145 0
-20 -144 0
-20 -143 0
-20 -142 0
-20 -141 0
-20 -140 0
-20 -170 0
-20 -169 0
-20 -168 0
-20 -167 0
-20 -195 0
-20 -194 0
-20 -220 0
-20 -219 0
-20 -245 0
-20 -244 0
-20 -243 0
-20 -242 0
-20 -270 0
-20 -269 0
-20 -295 0
-20 -294 0
-19 -18 0
-19 -17 0
-19 -16 0
-19 -15 0
-19 -45 0
-19 -44 0
-19 -43 0
-19 -42 0
-19 -41 0
-19 -40 0
-19 -70 0
-19 -69 0
-19 -95 0
-19 -94 0
-19 -93 0
-19 -92 0
-19 -120 0
-19 -119 0
-19 -118 0
-19 -117 0
-19 -116 0
-19 -115 0
-19 -145 0
-19 -144 0
-19 -143 0
-19 -142 0
-19 -141 0
-19 -140 0
-19 -170 0
-19 -169 0
-19 -168 0
-19 -167 0
-19 -195 0
-19 -194 0
-19 -220 0
-19 -219 0
-19 -245 0
-19 -244 0
-19 -243 0
-19 -242 0
-19 -270 0
-19 -269 0
-19 -295 0
-19 -294 0
-18 -17 0
-18 -16 0
-18 -15 0
-18 -45 0
-18 -44 0
-18 -43 0
-18 -42 0
-18 -41 0
-18 -40 0
-18 -70 0
-18 -69 0
-18 -95 0
-18 -94 0
-18 -93 0
-18 -92 0
-18 -120 0
-18 -119 0
-18 -118 0
-18 -117 0
-18 -116 0
-18 -115 0
-18 -145 0
-18 -144 0
-18 -143 0
-18 -142 0
-18 -141 0
-18 -140 0
-18 -170 0
-18 -169 0
-18 -168 0
-18 -167 0
-18 -195 0
-18 -194 0
-18 -220 0
-18 -219 0
-18 -245 0
-18 -244 0
-18 -243 0
-18 -242 0
-18 -270 0
-18 -269 0
-18 -295 0
-18 -294 0
-17 -16 0
-17 -15 0
-17 -45 0
-17 -44 0
-17 -43 0
-17 -42 0
-17 -41 0
-17 -40 0
-17 -70 0
-17 -69 0
-17 -95 0
-17 -94 0
-17 -93 0
-17 -92 0
-17 -120 0
-17 -119 0
-17 -118 0
-17 -117 0
-17 -116 0
-17 -115 0
-17 -145 0
-17 -144 0
-17 -143 0
-17 -142 0
-17 -141 0
-17 -140 0
-17 -170 0
-17 -169 0
-17 -168 0
-17 -167 0
-17 -195 0
-17 -194 0
-17 -220 0
-17 -219 0
-17 -245 0
-17 -244 0
-17 -243 0
-17 -242 0
-17 -270 0
-17 -269 0
-17 -295 0
-17 -294 0
-16 -15 0
-16 -45 0
-16 -44 0
-16 -43 0
-16 -42 0
-16 -41 0
-16 -40 0
-16 -70 0
-16 -69 0
-16 -95 0
-16 -94 0
-16 -93 0
-16 -92 0
-16 -120 0
-16 -119 0
-16 -118 0
-16 -117 0
-16 -116 0
-16 -115 0
-16 -145 0
-16 -144 0
-16 -143 0
-16 -142 0
-16 -141 0
-16 -140 0
-16 -170 0
-16 -169 0
-16 -168 0
-16 -167 0
-16 -195 0
-16 -194 0
-16 -220 0
-16 -219 0
-16 -245 0
-16 -244 0
-16 -243 0
-16 -242 0
-16 -270 0
-16 -269 0
-16 -295 0
-16 -294 0
-15 -45 0
-15 -44 0
-15 -43 0
-15 -42 0
-15 -41 0
-15 -40 0
-15 -70 0
-15 -69 0
-15 -95 0
-15 -94 0
-15 -93 0
-15 -92 0
-15 -120 0
-15 -119 0
-15 -118 0
-15 -117 0
-15 -116 0
-15 -115 0
-15 -145 0
-15 -144 0
-15 -143 0
-15 -142 0
-15 -141 0
-15 -140 0
-15 -170 0
-15 -169 0
-15 -168 0
-15 -167 0
-15 -195 0
-15 -194 0
-15 -220 0
-15 -219 0
-15 -245 0
-15 -244 0
-15 -243 0
-15 -242 0
-15 -270 0
-15 -269 0
-15 -295 0
-15 -294 0
-45 -44 0
-45 -43 0
-45 -42 0
-45 -41 0
-45 -40 0
-45 -70 0
-45 -69 0
-45 -95 0
-45 -94 0
-45 -93 0
-45 -92 0
-45 -120 0
-45 -119 0
-45 -118 0
-45 -117 0
-45 -116 0
-45 -115 0
-45 -145 0
-45 -144 0
-45 -143 0
-45 -142 0
-45 -141 0
-45 -140 0
-45 -170 0
-45 -169 0
-45 -168 0
-45 -167 0
-45 -195 0
-45 -194 0
-45 -220 0
-45 -219 0
-45 -245 0
-45 -244 0
-45 -243 0
-45 -242 0
-45 -270 0
-45 -269 0
-45 -295 0
-45 -294 0
-44 -43 0
-44 -42 0
-44 -41 0
-44 -40 0
-44 -70 0
-44 -69 0
-44 -95 0
-44 -94 0
-44 -93 0
-44 -92 0
-44 -120 0
-44 -119 0
-44 -118 0
-44 -117 0
-44 -116 0
-44 -115 0
-44 -145 0
-44 -144 0
-44 -143 0
-44 -142 0
-44 -141 0
-44 -140 0
-44 -170 0
-44 -169 0
-44 -168 0
-44 -167 0
-44 -195 0
-44 -194 0
-44 -220 0
-44 -219 0
-44 -245 0
-44 -244 0
-44 -243 0
-44 -242 0
-44 -270 0
-44 -269 0
-44 -295 0
-44 -294 0
-43 -42 0
-43 -41 0
-43 -40 0
-43 -70 0
-43 -69 0
-43 -95 0
-43 -94 0
-43 -93 0
-43 -92 0
-43 -120 0
-43 -119 0
-43 -118 0
-43 -117 0
-43 -116 0
-43 -115 0
-43 -145 0
-43 -144 0
-43 -143 0
-43 -142 0
-43 -141 0
-43 -140 0
-43 -170 0
-43 -169 0
-43 -168 0
-43 -167 0
-43 -195 0
-43 -194 0
-43 -220 0
-43 -219 0
-43 -245 0
-43 -244 0
-43 -243 0
-43 -242 0
-43 -270 0
-43 -269 0
-43 -295 0
-43 -294 0
-42 -41 0
-42 -40 0
-42 -70 0
-42 -69 0
-42 -95 0
-42 -94 0
-42 -93 0
-42 -92 0
-42 -120 0
-42 -119 0
-42 -118 0
-42 -117 0
-42 -116 0
-42 -115 0
-42 -145 0
-42 -144 0
-42 -143 0
-42 -142 0
-42 -141 0
-42 -140 0
-42 -170 0
-42 -169 0
-42 -168 0
-42 -167 0
-42 -195 0
-42 -194 0
-42 -220 0
-42 -219 0
-42 -245 0
-42 -244 0
-42 -243 0
-42 -242 0
-42 -270 0
-42 -269 0
-42 -295 0
-42 -294 0
-41 -40 0
-41 -70 0
-41 -69 0
-41 -95 0
-41 -94 0
-41 -93 0
-41 -92 0
-41 -120 0
-41 -119 0
-41 -118 0
-41 -117 0
-41 -116 0
-41 -115 0
-41 -145 0
-41 -144 0
-41 -143 0
-41 -142 0
-41 -141 0
-41 -140 0
-41 -170 0
-41 -169 0
-41 -168 0
-41 -167 0
-41 -195 0
-41 -194 0
-41 -220 0
-41 -219 0
-41 -245 0
-41 -244 0
-41 -243 0
-41 -242 0
-41 -270 0
-41 -269 0
-41 -295 0
-41 -294 0
-40 -70 0
-40 -69 0
-40 -95 0
-40 -94 0
-40 -93 0
-40 -92 0
-40 -120 0
-40 -119 0
-40 -118 0
-40 -117 0
-40 -116 0
-40 -115 0
-40 -145 0
-40 -144 0
-40 -143 0
-40 -142 0
-40 -141 0
-40 -140 0
-40 -170 0
-40 -169 0
-40 -168 0
-40 -167 0
-40 -195 0
-40 -194 0
-40 -220 0
-40 -219 0
-40 -245 0
-40 -244 0
-40 -243 0
-40 -242 0
-40 -270 0
-40 -269 0
-40 -295 0
-40 -294 0
-70 -69 0
-70 -95 0
-70 -94 0
-70 -93 0
-70 -92 0
-70 -120 0
-70 -119 0
-70 -118 0
-70 -117 0
-70 -116 0
-70 -115 0
-70 -145 0
-70 -144 0
-70 -143 0
-70 -142 0
-70 -141 0
-70 -140 0
-70 -170 0
-70 -169 0
-70 -168 0
-70 -167 0
-70 -195 0
-70 -194 0
-70 -220 0
-70 -219 0
-70 -245 0
-70 -244 0
-70 -243 0
-70 -242 0
-70 -270 0
-70 -269 0
-70 -295 0
-70 -294 0
-69 -95 0
-69 -94 0
-69 -93 0
-69 -92 0
-69 -120 0
-69 -119 0
-69 -118 0
-69 -117 0
-69 -116 0
-69 -115 0
-69 -145 0
-69 -144 0
-69 -143 0
-69 -142 0
-69 -141 0
-69 -140 0
-69 -170 0
-69 -169 0
-69 -168 0
-69 -167 0
-69 -195 0
-69 -194 0
-69 -220 0
-69 -219 0
-69 -245 0
-69 -244 0
-69 -243 0
-69 -242 0
-69 -270 0
-69 -269 0
-69 -295 0
-69 -294 0
-95 -94 0
-95 -93 0
-95 -92 0
-95 -120 0
-95 -119 0
-95 -118 0
-95 -117 0
-95 -116 0
-95 -115 0
-95 -145 0
-95 -144 0
-95 -143 0
-95 -142 0
-95 -141 0
-95 -140 0
-95 -170 0
-95 -169 0
-95 -168 0
-95 -167 0
-95 -195 0
-95 -194 0
-95 -220 0
-95 -219 0
-95 -245 0
-95 -244 0
-95 -243 0
-95 -242 0
-95 -270 0
-95 -269 0
-95 -295 0
-95 -294 0
-94 -93 0
-94 -92 0
-94 -120 0
-94 -119 0
-94 -118 0
-94 -117 0
-94 -116 0
-94 -115 0
-94 -145 0
-94 -144 0
-94 -143 0
-94 -142 0
-94 -141 0
-94 -140 0
-94 -170 0
-94 -169 0
-94 -168 0
-94 -167 0
-94 -195 0
-94 -194 0
-94 -220 0
-94 -219 0
-94 -245 0
-94 -244 0
-94 -243 0
-94 -242 0
-94 -270 0
-94 -269 0
-94 -295 0
-94 -294 0
-93 -92 0
-93 -120 0
-93 -119 0
-93 -118 0
-93 -117 0
-93 -116 0
-93 -115 0
-93 -145 0
-93 -144 0
-93 -143 0
-93 -142 0
-93 -141 0
-93 -140 0
-93 -170 0
-93 -169 0
-93 -168 0
-93 -167 0
-93 -195 0
-93 -194 0
-93 -220 0
-93 -219 0
-93 -245 0
-93 -244 0
-93 -243 0
-93 -242 0
-93 -270 0
-93 -269 0
-93 -295 0
-93 -294 0
-92 -120 0
-92 -119 0
-92 -118 0
-92 -117 0
-92 -116 0
-92 -115 0
-92 -145 0
-92 -144 0
-92 -143 0
-92 -142 0
-92 -141 0
-92 -140 0
-92 -170 0
-92 -169 0
-92 -168 0
-92 -167 0
-92 -195 0
-92 -194 0
-92 -220 0
-92 -219 0
-92 -245 0
-92 -244 0
-92 -243 0
-92 -242 0
-92 -270 0
-92 -269 0
-92 -295 0
-92 -294 0
-120 -119 0
-120 -118 0
-120 -117 0
-120 -116 0
-120 -115 0
-120 -145 0
-120 -144 0
-120 -143 0
-120 -142 0
-120 -141 0
-120 -140 0
-120 -170 0
-120 -169 0
-120 -168 0
-120 -167 0
-120 -195 0
-120 -194 0
-120 -220 0
-120 -219 0
-120 -245 0
-120 -244 0
-120 -243 0
-120 -242 0
-120 -270 0
-120 -269 0
-120 -295 0
-120 -294 0
-119 -118 0
-119 -117 0
-119 -116 0
-119 -115 0
-119 -145 0
-119 -144 0
-119 -143 0
-119 -142 0
-119 -141 0
-119 -140 0
-119 -170 0
-119 -169 0
-119 -168 0
-119 -167 0
-119 -195 0
-119 -194 0
-119 -220 0
-119 -219 0
-119 -245 0
-119 -244 0
-119 -243 0
-119 -242 0
-119 -270 0
-119 -269 0
-119 -295 0
-119 -294 0
-118 -117 0
-118 -116 0
-118 -115 0
-118 -145 0
-118 -144 0
-118 -143 0
-118 -142 0
-118 -141 0
-118 -140 0
-118 -170 0
-118 -169 0
-118 -168 0
-118 -167 0
-118 -195 0
-118 -194 0
-118 -220 0
-118 -219 0
-118 -245 0
-118 -244 0
-118 -243 0
-118 -242 0
-118 -270 0
-118 -269 0
-118 -295 0
-118 -294 0
-117 -116 0
-117 -115 0
-117 -145 0
-117 -144 0
-117 -143 0
-117 -142 0
-117 -141 0
-117 -140 0
-117 -170 0
-117 -169 0
-117 -168 0
-117 -167 0
-117 -195 0
-117 -194 0
-117 -220 0
-117 -219 0
-117 -245 0
-117 -244 0
-117 -243 0
-117 -242 0
-117 -270 0
-117 -269 0
-117 -295 0
-117 -294 0
-116 -115 0
-116 -145 0
-116 -144 0
-116 -143 0
-116 -142 0
-116 -141 0
-116 -140 0
-116 -170 0
-116 -169 0
-116 -168 0
-116 -167 0
-116 -195 0
-116 -194 0
-116 -220 0
-116 -219 0
-116 -245 0
-116 -244 0
-116 -243 0
-116 -242 0
-116 -270 0
-116 -269 0
-116 -295 0
-116 -294 0
-115 -145 0
-115 -144 0
-115 -143 0
-115 -142 0
-115 -141 0
-115 -140 0
-115 -170 0
-115 -169 0
-115 -168 0
-115 -167 0
-115 -195 0
-115 -194 0
-115 -220 0
-115 -219 0
-115 -245 0
-115 -244 0
-115 -243 0
-115 -242 0
-115 -270 0
-115 -269 0
-115 -295 0
-115 -294 0
-145 -144 0
-145 -143 0
-145 -142 0
-145 -141 0
-145 -140 0
-145 -170 0
-145 -169 0
-145 -168 0
-145 -167 0
-145 -195 0
-145 -194 0
-145 -220 0
-145 -219 0
-145 -245 0
-145 -244 0
-145 -243 0
-145 -242 0
-145 -270 0
-145 -269 0
-145 -295 0
-145 -294 0
-144 -143 0
-144 -142 0
-144 -141 0
-144 -140 0
-144 -170 0
-144 -169 0
-144 -168 0
-144 -167 0
-144 -195 0
-144 -194 0
-144 -220 0
-144 -219 0
-144 -245 0
-144 -244 0
-144 -243 0
-144 -242 0
-144 -270 0
-144 -269 0
-144 -295 0
-144 -294 0
-143 -142 0
-143 -141 0
-143 -140 0
-143 -170 0
-143 -169 0
-143 -168 0
-143 -167 0
-143 -195 0
-143 -194 0
-143 -220 0
-143 -219 0
-143 -245 0
-143 -244 0
-143 -243 0
-143 -242 0
-143 -270 0
-143 -269 0
-143 -295 0
-143 -294 0
-142 -141 0
-142 -140 0
-142 -170 0
-142 -169 0
-142 -168 0
-142 -167 0
-142 -195 0
-142 -194 0
-142 -220 0
-142 -219 0
-142 -245 0
-142 -244 0
-142 -243 0
-142 -242 0
-142 -270 0
-142 -269 0
-142 -295 0
-142 -294 0
-141 -140 0
-141 -170 0
-141 -169 0
-141 -168 0
-141 -167 0
-141 -195 0
-141 -194 0
-141 -220 0
-141 -219 0
-141 -245 0
-141 -244 0
-141 -243 0
-141 -242 0
-141 -270 0
-141 -269 0
-141 -295 0
-141 -294 0
-140 -170 0
-140 -169 0
-140 -168 0
-140 -167 0
-140 -195 0
-140 -194 0
-140 -220 0
-140 -219 0
-140 -245 0
-140 -244 0
-140 -243 0
-140 -242 0
-140 -270 0
-140 -269 0
-140 -295 0
-140 -294 0
-170 -169 0
-170 -168 0
-170 -167 0
-170 -195 0
-170 -194 0
-170 -220 0
-170 -219 0
-170 -245 0
-170 -244 0
-170 -243 0
-170 -242 0
-170 -270 0
-170 -269 0
-170 -295 0
-170 -294 0
-169 -168 0
-169 -167 0
-169 -195 0
-169 -194 0
-169 -220 0
-169 -219 0
-169 -245 0
-169 -244 0
-169 -243 0
-169 -242 0
-169 -270 0
-169 -269 0
-169 -295 0
-169 -294 0
-168 -167 0
-168 -195 0
-168 -194 0
-168 -220 0
-168 -219 0
-168 -245 0
-168 -244 0
-168 -243 0
-168 -242 0
-168 -270 0
-168 -269 0
-168 -295 0
-168 -294 0
-167 -195 0
-167 -194 0
-167 -220 0
-167 -219 0
-167 -245 0
-167 -244 0
-167 -243 0
-167 -242 0
-167 -270 0
-167 -269 0
-167 -295 0
-167 -294 0
-195 -194 0
-195 -220 0
-195 -219 0
-195 -245 0
-195 -244 0
-195 -243 0
-195 -242 0
-195 -270 0
-195 -269 0
-195 -295 0
-195 -294 0
-194 -220 0
-194 -219 0
-194 -245 0
-194 -244 0
-194 -243 0
-194 -242 0
-194 -270 0
-194 -269 0
-194 -295 0
-194 -294 0
-220 -219 0
-220 -245 0
-220 -244 0
-220 -243 0
-220 -242 0
-220 -270 0
-220 -269 0
-220 -295 0
-220 -294 0
-219 -245 0
-219 -244 0
-219 -243 0
-219 -242 0
-219 -270 0
-219 -269 0
-219 -295 0
-219 -294 0
-245 -244 0
-245 -243 0
-245 -242 0
-245 -270 0
-245 -269 0
-245 -295 0
-245 -294 0
-244 -243 0
-244 -242 0
-244 -270 0
-244 -269 0
-244 -295 0
-244 -294 0
-243 -242 0
-243 -270 0
-243 -269 0
-243 -295 0
-243 -294 0
-242 -270 0
-242 -269 0
-242 -295 0
-242 -294 0
-270 -269 0
-270 -295 0
-270 -294 0
-269 -295 0
-269 -294 0
-295 -294 0
-21 -20 0
-21 -19 0
-21 -18 0
-21 -17 0
-21 -16 0
-21 -46 0
-21 -45 0
-21 -44 0
-21 -43 0
-21 -42 0
-21 -41 0
-21 -71 0
-21 -70 0
-21 -96 0
-21 -95 0
-21 -94 0
-21 -93 0
-21 -121 0
-21 -120 0
-21 -119 0
-21 -118 0
-21 -117 0
-21 -116 0
-21 -146 0
-21 -145 0
-21 -144 0
-21 -143 0
-21 -142 0
-21 -141 0
-21 -171 0
-21 -170 0
-21 -169 0
-21 -168 0
-21 -196 0
-21 -195 0
-21 -221 0
-21 -220 0
-21 -246 0
-21 -245 0
-21 -244 0
-21 -243 0
-21 -271 0
-21 -270 0
-21 -296 0
-21 -295 0
-20 -19 0
-20 -18 0
-20 -17 0
-20 -16 0
-20 -46 0
-20 -45 0
-20 -44 0
-20 -43 0
-20 -42 0
-20 -41 0
-20 -71 0
-20 -70 0
-20 -96 0
-20 -95 0
-20 -94 0
-20 -93 0
-20 -121 0
-20 -120 0
-20 -119 0
-20 -118 0
-20 -117 0
-20 -116 0
-20 -146 0
-20 -145 0
-20 -144 0
-20 -143 0
-20 -142 0
-20 -141 0
-20 -171 0
-20 -170 0
-20 -169 0
-20 -168 0
-20 -196 0
-20 -195 0
-20 -221 0
-20 -220 0
-20 -246 0
-20 -245 0
-20 -244 0
-20 -243 0
-20 -271 0
-20 -270 0
-20 -296 0
-20 -295 0
-19 -18 0
-19 -17 0
-19 -16 0
-19 -46 0
-19 -45 0
-19 -44 0
-19 -43 0
-19 -42 0
-19 -41 0
-19 -71 0
-19 -70 0
-19 -96 0
-19 -95 0
-19 -94 0
-19 -93 0
-19 -121 0
-19 -120 0
-19 -119 0
-19 -118 0
-19 -117 0
-19 -116 0
-19 -146 0
-19 -145 0
-19 -144 0
-19 -143 0
-19 -142 0
-19 -141 0
-19 -171 0
-19 -170 0
-19 -169 0
-19 -168 0
-19 -196 0
-19 -195 0
-19 -221 0
-19 -220 0
-19 -246 0
-19 -245 0
-19 -244 0
-19 -243 0
-19 -271 0
-19 -270 0
-19 -296 0
-19 -295 0
-18 -17 0
-18 -16 0
-18 -46 0
-18 -45 0
-18 -44 0
-18 -43 0
-18 -42 0
-18 -41 0
-18 -71 0
-18 -70 0
-18 -96 0
-18 -95 0
-18 -94 0
-18 -93 0
-18 -121 0
-18 -120 0
-18 -119 0
-18 -118 0
-18 -117 0
-18 -116 0
-18 -146 0
-18 -145 0
-18 -144 0
-18 -143 0
-18 -142 0
-18 -141 0
-18 -171 0
-18 -170 0
-18 -169 0
-18 -168 0
-18 -196 0
-18 -195 0
-18 -221 0
-18 -220 0
-18 -246 0
-18 -245 0
-18 -244 0
-18 -243 0
-18 -271 0
-18 -270 0
-18 -296 0
-18 -295 0
-17 -16 0
-17 -46 0
-17 -45 0
-17 -44 0
-17 -43 0
-17 -42 0
-17 -41 0
-17 -71 0
-17 -70 0
-17 -96 0
-17 -95 0
-17 -94 0
-17 -93 0
-17 -121 0
-17 -120 0
-17 -119 0
-17 -118 0
-17 -117 0
-17 -116 0
-17 -146 0
-17 -145 0
-17 -144 0
-17 -143 0
-17 -142 0
-17 -141 0
-17 -171 0
-17 -170 0
-17 -169 0
-17 -168 0
-17 -196 0
-17 -195 0
-17 -221 0
-17 -220 0
-17 -246 0
-17 -245 0
-17 -244 0
-17 -243 0
-17 -271 0
-17 -270 0
-17 -296 0
-17 -295 0
-16 -46 0
-16 -45 0
-16 -44 0
-16 -43 0
-16 -42 0
-16 -41 0
-16 -71 0
-16 -70 0
-16 -96 0
-16 -95 0
-16 -94 0
-16 -93 0
-16 -121 0
-16 -120 0
-16 -119 0
-16 -118 0
-16 -117 0
-16 -116 0
-16 -146 0
-16 -145 0
-16 -144 0
-16 -143 0
-16 -142 0
-16 -141 0
-16 -171 0
-16 -170 0
-16 -169 0
-16 -168 0
-16 -196 0
-16 -195 0
-16 -221 0
-16 -220 0
-16 -246 0
-16 -245 0
-16 -244 0
-16 -243 0
-16 -271 0
-16 -270 0
-16 -296 0
-16 -295 0
-46 -45 0
-46 -44 0
-46 -43 0
-46 -42 0
-46 -41 0
-46 -71 0
-46 -70 0
-46 -96 0
-46 -95 0
-46 -94 0
-46 -93 0
-46 -121 0
-46 -120 0
-46 -119 0
-46 -118 0
-46 -117 0
-46 -116 0
-46 -146 0
-46 -145 0
-46 -144 0
-46 -143 0
-46 -142 0
-46 -141 0
-46 -171 0
-46 -170 0
-46 -169 0
-46 -168 0
-46 -196 0
-46 -195 0
-46 -221 0
-46 -220 0
-46 -246 0
-46 -245 0
-46 -244 0
-46 -243 0
-46 -271 0
-46 -270 0
-46 -296 0
-46 -295 0
-45 -44 0
-45 -43 0
-45 -42 0
-45 -41 0
-45 -71 0
-45 -70 0
-45 -96 0
-45 -95 0
-45 -94 0
-45 -93 0
-45 -121 0
-45 -120 0
-45 -119 0
-45 -118 0
-45 -117 0
-45 -116 0
-45 -146 0
-45 -145 0
-45 -144 0
-45 -143 0
-45 -142 0
-45 -141 0
-45 -171 0
-45 -170 0
-45 -169 0
-45 -168 0
-45 -196 0
-45 -195 0
-45 -221 0
-45 -220 0
-45 -246 0
-45 -245 0
-45 -244 0
-45 -243 0
-45 -271 0
-45 -270 0
-45 -296 0
-45 -295 0
-44 -43 0
-44 -42 0
-44 -41 0
-44 -71 0
-44 -70 0
-44 -96 0
-44 -95 0
-44 -94 0
-44 -93 0
-44 -121 0
-44 -120 0
-44 -119 0
-44 -118 0
-44 -117 0
-44 -116 0
-44 -146 0
-44 -145 0
-44 -144 0
-44 -143 0
-44 -142 0
-44 -141 0
-44 -171 0
-44 -170 0
-44 -169 0
-44 -168 0
-44 -196 0
-44 -195 0
-44 -221 0
-44 -220 0
-44 -246 0
-44 -245 0
-44 -244 0
-44 -243 0
-44 -271 0
-44 -270 0
-44 -296 0
-44 -295 0
-43 -42 0
-43 -41 0
-43 -71 0
-43 -70 0
-43 -96 0
-43 -95 0
-43 -94 0
-43 -93 0
-43 -121 0
-43 -120 0
-43 -119 0
-43 -118 0
-43 -117 0
-43 -116 0
-43 -146 0
-43 -145 0
-43 -144 0
-43 -143 0
-43 -142 0
-43 -141 0
-43 -171 0
-43 -170 0
-43 -169 0
-43 -168 0
-43 -196 0
-43 -195 0
-43 -221 0
-43 -220 0
-43 -246 0
-43 -245 0
-43 -244 0
-43 -243 0
-43 -271 0
-43 -270 0
-43 -296 0
-43 -295 0
-42 -41 0
-42 -71 0
-42 -70 0
-42 -96 0
-42 -95 0
-42 -94 0
-42 -93 0
-42 -121 0
-42 -120 0
-42 -119 0
-42 -118 0
-42 -117 0
-42 -116 0
-42 -146 0
-42 -145 0
-42 -144 0
-42 -143 0
-42 -142 0
-42 -141 0
-42 -171 0
-42 -170 0
-42 -169 0
-42 -168 0
-42 -196 0
-42 -195 0
-42 -221 0
-42 -220 0
-42 -246 0
-42 -245 0
-42 -244 0
-42 -243 0
-42 -271 0
-42 -270 0
-42 -296 0
-42 -295 0
-41 -71 0
-41 -70 0
-41 -96 0
-41 -95 0
-41 -94 0
-41 -93 0
-41 -121 0
-41 -120 0
-41 -119 0
-41 -118 0
-41 -117 0
-41 -116 0
-41 -146 0
-41 -145 0
-41 -144 0
-41 -143 0
-41 -142 0
-41 -141 0
-41 -171 0
-41 -170 0
-41 -169 0
-41 -168 0
-41 -196 0
-41 -195 0
-41 -221 0
-41 -220 0
-41 -246 0
-41 -245 0
-41 -244 0
-41 -243 0
-41 -271 0
-41 -270 0
-41 -296 0
-41 -295 0
-71 -70 0
-71 -96 0
-71 -95 0
-71 -94 0
-71 -93 0
-71 -121 0
-71 -120 0
-71 -119 0
-71 -118 0
-71 -117 0
-71 -116 0
-71 -146 0
-71 -145 0
-71 -144 0
-71 -143 0
-71 -142 0
-71 -141 0
-71 -171 0
-71 -170 0
-71 -169 0
-71 -168 0
-71 -196 0
-71 -195 0
-71 -221 0
-71 -220 0
-71 -246 0
-71 -245 0
-71 -244 0
-71 -243 0
-71 -271 0
-71 -270 0
-71 -296 0
-71 -295 0
-70 -96 0
-70 -95 0
-70 -94 0
-70 -93 0
-70 -121 0
-70 -120 0
-70 -119 0
-70 -118 0
-70 -117 0
-70 -116 0
-70 -146 0
-70 -145 0
-70 -144 0
-70 -143 0
-70 -142 0
-70 -141 0
-70 -171 0
-70 -170 0
-70 -169 0
-70 -168 0
-70 -196 0
-70 -195 0
-70 -221 0
-70 -220 0
-70 -246 0
-70 -245 0
-70 -244 0
-70 -243 0
-70 -271 0
-70 -270 0
-70 -296 0
-70 -295 0
-96 -95 0
-96 -94 0
-96 -93 0
-96 -121 0
-96 -120 0
-96 -119 0
-96 -118 0
-96 -117 0
-96 -116 0
-96 -146 0
-96 -145 0
-96 -144 0
-96 -143 0
-96 -142 0
-96 -141 0
-96 -171 0
-96 -170 0
-96 -169 0
-96 -168 0
-96 -196 0
-96 -195 0
-96 -221 0
-96 -220 0
-96 -246 0
-96 -245 0
-96 -244 0
-96 -243 0
-96 -271 0
-96 -270 0
-96 -296 0
-96 -295 0
-95 -94 0
-95 -93 0
-95 -121 0
-95 -120 0
-95 -119 0
-95 -118 0
-95 -117 0
-95 -116 0
-95 -146 0
-95 -145 0
-95 -144 0
-95 -143 0
-95 -142 0
-95 -141 0
-95 -171 0
-95 -170 0
-95 -169 0
-95 -168 0
-95 -196 0
-95 -195 0
-95 -221 0
-95 -220 0
-95 -246 0
-95 -245 0
-95 -244 0
-95 -243 0
-95 -271 0
-95 -270 0
-95 -296 0
-95 -295 0
-94 -93 0
-94 -121 0
-94 -120 0
-94 -119 0
-94 -118 0
-94 -117 0
-94 -116 0
-94 -146 0
-94 -145 0
-94 -144 0
-94 -143 0
-94 -142 0
-94 -141 0
-94 -171 0
-94 -170 0
-94 -169 0
-94 -168 0
-94 -196 0
-94 -195 0
-94 -221 0
-94 -220 0
-94 -246 0
-94 -245 0
-94 -244 0
-94 -243 0
-94 -271 0
-94 -270 0
-94 -296 0
-94 -295 0
-93 -121 0
-93 -120 0
-93 -119 0
-93 -118 0
-93 -117 0
-93 -116 0
-93 -146 0
-93 -145 0
-93 -144 0
-93 -143 0
-93 -142 0
-93 -141 0
-93 -171 0
-93 -170 0
-93 -169 0
-93 -168 0
-93 -196 0
-93 -195 0
-93 -221 0
-93 -220 0
-93 -246 0
-93 -245 0
-93 -244 0
-93 -243 0
-93 -271 0
-93 -270 0
-93 -296 0
-93 -295 0
-121 -120 0
-121 -119 0
-121 -118 0
-121 -117 0
-121 -116 0
-121 -146 0
-121 -145 0
-121 -144 0
-121 -143 0
-121 -142 0
-121 -141 0
-121 -171 0
-121 -170 0
-121 -169 0
-121 -168 0
-121 -196 0
-121 -195 0
-121 -221 0
-121 -220 0
-121 -246 0
-121 -245 0
-121 -244 0
-121 -243 0
-121 -271 0
-121 -270 0
-121 -296 0
-121 -295 0
-120 -119 0
-120 -118 0
-120 -117 0
-120 -116 0
-120 -146 0
-120 -145 0
-120 -144 0
-120 -143 0
-120 -142 0
-120 -141 0
-120 -171 0
-120 -170 0
-120 -169 0
-120 -168 0
-120 -196 0
-120 -195 0
-120 -221 0
-120 -220 0
-120 -246 0
-120 -245 0
-120 -244 0
-120 -243 0
-120 -271 0
-120 -270 0
-120 -296 0
-120 -295 0
-119 -118 0
-119 -117 0
-119 -116 0
-119 -146 0
-119 -145 0
-119 -144 0
-119 -143 0
-119 -142 0
-119 -141 0
-119 -171 0
-119 -170 0
-119 -169 0
-119 -168 0
-119 -196 0
-119 -195 0
-119 -221 0
-119 -220 0
-119 -246 0
-119 -245 0
-119 -244 0
-119 -243 0
-119 -271 0
-119 -270 0
-119 -296 0
-119 -295 0
-118 -117 0
-118 -116 0
-118 -146 0
-118 -145 0
-118 -144 0
-118 -143 0
-118 -142 0
-118 -141 0
-118 -171 0
-118 -170 0
-118 -169 0
-118 -168 0
-118 -196 0
-118 -195 0
-118 -221 0
-118 -220 0
-118 -246 0
-118 -245 0
-118 -244 0
-118 -243 0
-118 -271 0
-118 -270 0
-118 -296 0
-118 -295 0
-117 -116 0
-117 -146 0
-117 -145 0
-117 -144 0
-117 -143 0
-117 -142 0
-117 -141 0
-117 -171 0
-117 -170 0
-117 -169 0
-117 -168 0
-117 -196 0
-117 -195 0
-117 -221 0
-117 -220 0
-117 -246 0
-117 -245 0
-117 -244 0
-117 -243 0
-117 -271 0
-117 -270 0
-117 -296 0
-117 -295 0
-116 -146 0
-116 -145 0
-116 -144 0
-116 -143 0
-116 -142 0
-116 -141 0
-116 -171 0
-116 -170 0
-116 -169 0
-116 -168 0
-116 -196 0
-116 -195 0
-116 -221 0
-116 -220 0
-116 -246 0
-116 -245 0
-116 -244 0
-116 -243 0
-116 -271 0
-116 -270 0
-116 -296 0
-116 -295 0
-146 -145 0
-146 -144 0
-146 -143 0
-146 -142 0
-146 -141 0
-146 -171 0
-146 -170 0
-146 -169 0
-146 -168 0
-146 -196 0
-146 -195 0
-146 -221 0
-146 -220 0
-146 -246 0
-146 -245 0
-146 -244 0
-146 -243 0
-146 -271 0
-146 -270 0
-146 -296 0
-146 -295 0
-145 -144 0
-145 -143 0
-145 -142 0
-145 -141 0
-145 -171 0
-145 -170 0
-145 -169 0
-145 -168 0
-145 -196 0
-145 -195 0
-145 -221 0
-145 -220 0
-145 -246 0
-145 -245 0
-145 -244 0
-145 -243 0
-145 -271 0
-145 -270 0
-145 -296 0
-145 -295 0
-144 -143 0
-144 -142 0
-144 -141 0
-144 -171 0
-144 -170 0
-144 -169 0
-144 -168 0
-144 -196 0
-144 -195 0
-144 -221 0
-144 -220 0
-144 -246 0
-144 -245 0
-144 -244 0
-144 -243 0
-144 -271 0
-144 -270 0
-144 -296 0
-144 -295 0
-143 -142 0
-143 -141 0
-143 -171 0
-143 -170 0
-143 -169 0
-143 -168 0
-143 -196 0
-143 -195 0
-143 -221 0
-143 -220 0
-143 -246 0
-143 -245 0
-143 -244 0
-143 -243 0
-143 -271 0
-143 -270 0
-143 -296 0
-143 -295 0
-142 -141 0
-142 -171 0
-142 -170 0
-142 -169 0
-142 -168 0
-142 -196 0
-142 -195 0
-142 -221 0
-142 -220 0
-142 -246 0
-142 -245 0
-142 -244 0
-142 -243 0
-142 -271 0
-142 -270 0
-142 -296 0
-142 -295 0
-141 -171 0
-141 -170 0
-141 -169 0
-141 -168 0
-141 -196 0
-141 -195 0
-141 -221 0
-141 -220 0
-141 -246 0
-141 -245 0
-141 -244 0
-141 -243 0
-141 -271 0
-141 -270 0
-141 -296 0
-141 -295 0
-171 -170 0
-171 -169 0
-171 -168 0
-171 -196 0
-171 -195 0
-171 -221 0
-171 -220 0
-171 -246 0
-171 -245 0
-171 -244 0
-171 -243 0
-171 -271 0
-171 -270 0
-171 -296 0
-171 -295 0
-170 -169 0
-170 -168 0
-170 -196 0
-170 -195 0
-170 -221 0
-170 -220 0
-170 -246 0
-170 -245 0
-170 -244 0
-170 -243 0
-170 -271 0
-170 -270 0
-170 -296 0
-170 -295 0
-169 -168 0
-169 -196 0
-169 -195 0
-169 -221 0
-169 -220 0
-169 -246 0
-169 -245 0
-169 -244 0
-169 -243 0
-169 -271 0
-169 -270 0
-169 -296 0
-169 -295 0
-168 -196 0
-168 -195 0
-168 -221 0
-168 -220 0
-168 -246 0
-168 -245 0
-168 -244 0
-168 -243 0
-168 -271 0
-168 -270 0
-168 -296 0
-168 -295 0
-196 -195 0
-196 -221 0
-196 -220 0
-196 -246 0
-196 -245 0
-196 -244 0
-196 -243 0
-196 -271 0
-196 -270 0
-196 -296 0
-196 -295 0
-195 -221 0
-195 -220 0
-195 -246 0
-195 -245 0
-195 -244 0
-195 -243 0
-195 -271 0
-195 -270 0
-195 -296 0
-195 -295 0
-221 -220 0
-221 -246 0
-221 -245 0
-221 -244 0
-221 -243 0
-221 -271 0
-221 -270 0
-221 -296 0
-221 -295 0
-220 -246 0
-220 -245 0
-220 -244 0
-220 -243 0
-220 -271 0
-220 -270 0
-220 -296 0
-220 -295 0
-246 -245 0
-246 -244 0
-246 -243 0
-246 -271 0
-246 -270 0
-246 -296 0
-246 -295 0
-245 -244 0
-245 -243 0
-245 -271 0
-245 -270 0
-245 -296 0
-245 -295 0
-244 -243 0
-244 -271 0
-244 -270 0
-244 -296 0
-244 -295 0
-243 -271 0
-243 -270 0
-243 -296 0
-243 -295 0
-271 -270 0
-271 -296 0
-271 -295 0
-270 -296 0
-270 -295 0
-296 -295 0
-22 -21 0
-22 -20 0
-22 -19 0
-22 -18 0
-22 -17 0
-22 -47 0
-22 -46 0
-22 -45 0
-22 -44 0
-22 -43 0
-22 -42 0
-22 -72 0
-22 -71 0
-22 -97 0
-22 -96 0
-22 -95 0
-22 -94 0
-22 -122 0
-22 -121 0
-22 -120 0
-22 -119 0
-22 -118 0
-22 -117 0
-22 -147 0
-22 -146 0
-22 -145 0
-22 -144 0
-22 -143 0
-22 -142 0
-22 -172 0
-22 -171 0
-22 -170 0
-22 -169 0
-22 -197 0
-22 -196 0
-22 -222 0
-22 -221 0
-22 -247 0
-22 -246 0
-22 -245 0
-22 -244 0
-22 -272 0
-22 -271 0
-22 -297 0
-22 -296 0
-21 -20 0
-21 -19 0
-21 -18 0
-21 -17 0
-21 -47 0
-21 -46 0
-21 -45 0
-21 -44 0
-21 -43 0
-21 -42 0
-21 -72 0
-21 -71 0
-21 -97 0
-21 -96 0
-21 -95 0
-21 -94 0
-21 -122 0
-21 -121 0
-21 -120 0
-21 -119 0
-21 -118 0
-21 -117 0
-21 -147 0
-21 -146 0
-21 -145 0
-21 -144 0
-21 -143 0
-21 -142 0
-21 -172 0
-21 -171 0
-21 -170 0
-21 -169 0
-21 -197 0
-21 -196 0
-21 -222 0
-21 -221 0
-21 -247 0
-21 -246 0
-21 -245 0
-21 -244 0
-21 -272 0
-21 -271 0
-21 -297 0
-21 -296 0
-20 -19 0
-20 -18 0
-20 -17 0
-20 -47 0
-20 -46 0
-20 -45 0
-20 -44 0
-20 -43 0
-20 -42 0
-20 -72 0
-20 -71 0
-20 -97 0
-20 -96 0
-20 -95 0
-20 -94 0
-20 -122 0
-20 -121 0
-20 -120 0
-20 -119 0
-20 -118 0
-20 -117 0
-20 -147 0
-20 -146 0
-20 -145 0
-20 -144 0
-20 -143 0
-20 -142 0
-20 -172 0
-20 -171 0
-20 -170 0
-20 -169 0
-20 -197 0
-20 -196 0
-20 -222 0
-20 -221 0
-20 -247 0
-20 -246 0
-20 -245 0
-20 -244 0
-20 -272 0
-20 -271 0
-20 -297 0
-20 -296 0
-19 -18 0
-19 -17 0
-19 -47 0
-19 -46 0
-19 -45 0
-19 -44 0
-19 -43 0
-19 -42 0
-19 -72 0
-19 -71 0
-19 -97 0
-19 -96 0
-19 -95 0
-19 -94 0
-19 -122 0
-19 -121 0
-19 -120 0
-19 -119 0
-19 -118 0
-19 -117 0
-19 -147 0
-19 -146 0
-19 -145 0
-19 -144 0
-19 -143 0
-19 -142 0
-19 -172 0
-19 -171 0
-19 -170 0
-19 -169 0
-19 -197 0
-19 -196 0
-19 -222 0
-19 -221 0
-19 -247 0
-19 -246 0
-19 -245 0
-19 -244 0
-19 -272 0
-19 -271 0
-19 -297 0
-19 -296 0
-18 -17 0
-18 -47 0
-18 -46 0
-18 -45 0
-18 -44 0
-18 -43 0
-18 -42 0
-18 -72 0
-18 -71 0
-18 -97 0
-18 -96 0
-18 -95 0
-18 -94 0
-18 -122 0
-18 -121 0
-18 -120 0
-18 -119 0
-18 -118 0
-18 -117 0
-18 -147 0
-18 -146 0
-18 -145 0
-18 -144 0
-18 -143 0
-18 -142 0
-18 -172 0
-18 -171 0
-18 -170 0
-18 -169 0
-18 -197 0
-18 -196 0
-18 -222 0
-18 -221 0
-18 -247 0
-18 -246 0
-18 -245 0
-18 -244 0
-18 -272 0
-18 -271 0
-18 -297 0
-18 -296 0
-17 -47 0
-17 -46 0
-17 -45 0
-17 -44 0
-17 -43 0
-17 -42 0
-17 -72 0
-17 -71 0
-17 -97 0
-17 -96 0
-17 -95 0
-17 -94 0
-17 -122 0
-17 -121 0
-17 -120 0
-17 -119 0
-17 -118 0
-17 -117 0
-17 -147 0
-17 -146 0
-17 -145 0
-17 -144 0
-17 -143 0
-17 -142 0
-17 -172 0
-17 -171 0
-17 -170 0
-17 -169 0
-17 -197 0
-17 -196 0
-17 -222 0
-17 -221 0
-17 -247 0
-17 -246 0
-17 -245 0
-17 -244 0
-17 -272 0
-17 -271 0
-17 -297 0
-17 -296 0
-47 -46 0
-47 -45 0
-47 -44 0
-47 -43 0
-47 -42 0
-47 -72 0
-47 -71 0
-47 -97 0
-47 -96 0
-47 -95 0
-47 -94 0
-47 -122 0
-47 -121 0
-47 -120 0
-47 -119 0
-47 -118 0
-47 -117 0
-47 -147 0
-47 -146 0
-47 -145 0
-47 -144 0
-47 -143 0
-47 -142 0
-47 -172 0
-47 -171 0
-47 -170 0
-47 -169 0
-47 -197 0
-47 -196 0
-47 -222 0
-47 -221 0
-47 -247 0
-47 -246 0
-47 -245 0
-47 -244 0
-47 -272 0
-47 -271 0
-47 -297 0
-47 -296 0
-46 -45 0
-46 -44 0
-46 -43 0
-46 -42 0
-46 -72 0
-46 -71 0
-46 -97 0
-46 -96 0
-46 -95 0
-46 -94 0
-46 -122 0
-46 -121 0
-46 -120 0
-46 -119 0
-46 -118 0
-46 -117 0
-46 -147 0
-46 -146 0
-46 -145 0
-46 -144 0
-46 -143 0
-46 -142 0
-46 -172 0
-46 -171 0
-46 -170 0
-46 -169 0
-46 -197 0
-46 -196 0
-46 -222 0
-46 -221 0
-46 -247 0
-46 -246 0
-46 -245 0
-46 -244 0
-46 -272 0
-46 -271 0
-46 -297 0
-46 -296 0
-45 -44 0
-45 -43 0
-45 -42 0
-45 -72 0
-45 -71 0
-45 -97 0
-45 -96 0
-45 -95 0
-45 -94 0
-45 -122 0
-45 -121 0
-45 -120 0
-45 -119 0
-45 -118 0
-45 -117 0
-45 -147 0
-45 -146 0
-45 -145 0
-45 -144 0
-45 -143 0
-45 -142 0
-45 -172 0
-45 -171 0
-45 -170 0
-45 -169 0
-45 -197 0
-45 -196 0
-45 -222 0
-45 -221 0
-45 -247 0
-45 -246 0
-45 -245 0
-45 -244 0
-45 -272 0
-45 -271 0
-45 -297 0
-45 -296 0
-44 -43 0
-44 -42 0
-44 -72 0
-44 -71 0
-44 -97 0
-44 -96 0
-44 -95 0
-44 -94 0
-44 -122 0
-44 -121 0
-44 -120 0
-44 -119 0
-44 -118 0
-44 -117 0
-44 -147 0
-44 -146 0
-44 -145 0
-44 -144 0
-44 -143 0
-44 -142 0
-44 -172 0
-44 -171 0
-44 -170 0
-44 -169 0
-44 -197 0
-44 -196 0
-44 -222 0
-44 -221 0
-44 -247 0
-44 -246 0
-44 -245 0
-44 -244 0
-44 -272 0
-44 -271 0
-44 -297 0
-44 -296 0
-43 -42 0
-43 -72 0
-43 -71 0
-43 -97 0
-43 -96 0
-43 -95 0
-43 -94 0
-43 -122 0
-43 -121 0
-43 -120 0
-43 -119 0
-43 -118 0
-43 -117 0
-43 -147 0
-43 -146 0
-43 -145 0
-43 -144 0
-43 -143 0
-43 -142 0
-43 -172 0
-43 -171 0
-43 -170 0
-43 -169 0
-43 -197 0
-43 -196 0
-43 -222 0
-43 -221 0
-43 -247 0
-43 -246 0
-43 -245 0
-43 -244 0
-43 -272 0
-43 -271 0
-43 -297 0
-43 -296 0
-42 -72 0
-42 -71 0
-42 -97 0
-42 -96 0
-42 -95 0
-42 -94 0
-42 -122 0
-42 -121 0
-42 -120 0
-42 -119 0
-42 -118 0
-42 -117 0
-42 -147 0
-42 -146 0
-42 -145 0
-42 -144 0
-42 -143 0
-42 -142 0
-42 -172 0
-42 -171 0
-42 -170 0
-42 -169 0
-42 -197 0
-42 -196 0
-42 -222 0
-42 -221 0
-42 -247 0
-42 -246 0
-42 -245 0
-42 -244 0
-42 -272 0
-42 -271 0
-42 -297 0
-42 -296 0
-72 -71 0
-72 -97 0
-72 -96 0
-72 -95 0
-72 -94 0
-72 -122 0
-72 -121 0
-72 -120 0
-72 -119 0
-72 -118 0
-72 -117 0
-72 -147 0
-72 -146 0
-72 -145 0
-72 -144 0
-72 -143 0
-72 -142 0
-72 -172 0
-72 -171 0
-72 -170 0
-72 -169 0
-72 -197 0
-72 -196 0
-72 -222 0
-72 -221 0
-72 -247 0
-72 -246 0
-72 -245 0
-72 -244 0
-72 -272 0
-72 -271 0
-72 -297 0
-72 -296 0
-71 -97 0
-71 -96 0
-71 -95 0
-71 -94 0
-71 -122 0
-71 -121 0
-71 -120 0
-71 -119 0
-71 -118 0
-71 -117 0
-71 -147 0
-71 -146 0
-71 -145 0
-71 -144 0
-71 -143 0
-71 -142 0
-71 -172 0
-71 -171 0
-71 -170 0
-71 -169 0
-71 -197 0
-71 -196 0
-71 -222 0
-71 -221 0
-71 -247 0
-71 -246 0
-71 -245 0
-71 -244 0
-71 -272 0
-71 -271 0
-71 -297 0
-71 -296 0
-97 -96 0
-97 -95 0
-97 -94 0
-97 -122 0
-97 -121 0
-97 -120 0
-97 -119 0
-97 -118 0
-97 -117 0
-97 -147 0
-97 -146 0
-97 -145 0
-97 -144 0
-97 -143 0
-97 -142 0
-97 -172 0
-97 -171 0
-97 -170 0
-97 -169 0
-97 -197 0
-97 -196 0
-97 -222 0
-97 -221 0
-97 -247 0
-97 -246 0
-97 -245 0
-97 -244 0
-97 -272 0
-97 -271 0
-97 -297 0
-97 -296 0
-96 -95 0
-96 -94 0
-96 -122 0
-96 -121 0
-96 -120 0
-96 -119 0
-96 -118 0
-96 -117 0
-96 -147 0
-96 -146 0
-96 -145 0
-96 -144 0
-96 -143 0
-96 -142 0
-96 -172 0
-96 -171 0
-96 -170 0
-96 -169 0
-96 -197 0
-96 -196 0
-96 -222 0
-96 -221 0
-96 -247 0
-96 -246 0
-96 -245 0
-96 -244 0
-96 -272 0
-96 -271 0
-96 -297 0
-96 -296 0
-95 -94 0
-95 -122 0
-95 -121 0
-95 -120 0
-95 -119 0
-95 -118 0
-95 -117 0
-95 -147 0
-95 -146 0
-95 -145 0
-95 -144 0
-95 -143 0
-95 -142 0
-95 -172 0
-95 -171 0
-95 -170 0
-95 -169 0
-95 -197 0
-95 -196 0
-95 -222 0
-95 -221 0
-95 -247 0
-95 -246 0
-95 -245 0
-95 -244 0
-95 -272 0
-95 -271 0
-95 -297 0
-95 -296 0
-94 -122 0
-94 -121 0
-94 -120 0
-94 -119 0
-94 -118 0
-94 -117 0
-94 -147 0
-94 -146 0
-94 -145 0
-94 -144 0
-94 -143 0
-94 -142 0
-94 -172 0
-94 -171 0
-94 -170 0
-94 -169 0
-94 -197 0
-94 -196 0
-94 -222 0
-94 -221 0
-94 -247 0
-94 -246 0
-94 -245 0
-94 -244 0
-94 -272 0
-94 -271 0
-94 -297 0
-94 -296 0
-122 -121 0
-122 -120 0
-122 -119 0
-122 -118 0
-122 -117 0
-122 -147 0
-122 -146 0
-122 -145 0
-122 -144 0
-122 -143 0
-122 -142 0
-122 -172 0
-122 -171 0
-122 -170 0
-122 -169 0
-122 -197 0
-122 -196 0
-122 -222 0
-122 -221 0
-122 -247 0
-122 -246 0
-122 -245 0
-122 -244 0
-122 -272 0
-122 -271 0
-122 -297 0
-122 -296 0
-121 -120 0
-121 -119 0
-121 -118 0
-121 -117 0
-121 -147 0
-121 -146 0
-121 -145 0
-121 -144 0
-121 -143 0
-121 -142 0
-121 -172 0
-121 -171 0
-121 -170 0
-121 -169 0
-121 -197 0
-121 -196 0
-121 -222 0
-121 -221 0
-121 -247 0
-121 -246 0
-121 -245 0
-121 -244 0
-121 -272 0
-121 -271 0
-121 -297 0
-121 -296 0
-120 -119 0
-120 -118 0
-120 -117 0
-120 -147 0
-120 -146 0
-120 -145 0
-120 -144 0
-120 -143 0
-120 -142 0
-120 -172 0
-120 -171 0
-120 -170 0
-120 -169 0
-120 -197 0
-120 -196 0
-120 -222 0
-120 -221 0
-120 -247 0
-120 -246 0
-120 -245 0
-120 -244 0
-120 -272 0
-120 -271 0
-120 -297 0
-120 -296 0
-119 -118 0
-119 -117 0
-119 -147 0
-119 -146 0
-119 -145 0
-119 -144 0
-119 -143 0
-119 -142 0
-119 -172 0
-119 -171 0
-119 -170 0
-119 -169 0
-119 -197 0
-119 -196 0
-119 -222 0
-119 -221 0
-119 -247 0
-119 -246 0
-119 -245 0
-119 -244 0
-119 -272 0
-119 -271 0
-119 -297 0
-119 -296 0
-118 -117 0
-118 -147 0
-118 -146 0
-118 -145 0
-118 -144 0
-118 -143 0
-118 -142 0
-118 -172 0
-118 -171 0
-118 -170 0
-118 -169 0
-118 -197 0
-118 -196 0
-118 -222 0
-118 -221 0
-118 -247 0
-118 -246 0
-118 -245 0
-118 -244 0
-118 -272 0
-118 -271 0
-118 -297 0
-118 -296 0
-117 -147 0
-117 -146 0
-117 -145 0
-117 -144 0
-117 -143 0
-117 -142 0
-117 -172 0
-117 -171 0
-117 -170 0
-117 -169 0
-117 -197 0
-117 -196 0
-117 -222 0
-117 -221 0
-117 -247 0
-117 -246 0
-117 -245 0
-117 -244 0
-117 -272 0
-117 -271 0
-117 -297 0
-117 -296 0
-147 -146 0
-147 -145 0
-147 -144 0
-147 -143 0
-147 -142 0
-147 -172 0
-147 -171 0
-147 -170 0
-147 -169 0
-147 -197 0
-147 -196 0
-147 -222 0
-147 -221 0
-147 -247 0
-147 -246 0
-147 -245 0
-147 -244 0
-147 -272 0
-147 -271 0
-147 -297 0
-147 -296 0
-146 -145 0
-146 -144 0
-146 -143 0
-146 -142 0
-146 -172 0
-146 -171 0
-146 -170 0
-146 -169 0
-146 -197 0
-146 -196 0
-146 -222 0
-146 -221 0
-146 -247 0
-146 -246 0
-146 -245 0
-146 -244 0
-146 -272 0
-146 -271 0
-146 -297 0
-146 -296 0
-145 -144 0
-145 -143 0
-145 -142 0
-145 -172 0
-145 -171 0
-145 -170 0
-145 -169 0
-145 -197 0
-145 -196 0
-145 -222 0
-145 -221 0
-145 -247 0
-145 -246 0
-145 -245 0
-145 -244 0
-145 -272 0
-145 -271 0
-145 -297 0
-145 -296 0
-144 -143 0
-144 -142 0
-144 -172 0
-144 -171 0
-144 -170 0
-144 -169 0
-144 -197 0
-144 -196 0
-144 -222 0
-144 -221 0
-144 -247 0
-144 -246 0
-144 -245 0
-144 -244 0
-144 -272 0
-144 -271 0
-144 -297 0
-144 -296 0
-143 -142 0
-143 -172 0
-143 -171 0
-143 -170 0
-143 -169 0
-143 -197 0
-143 -196 0
-143 -222 0
-143 -221 0
-143 -247 0
-143 -246 0
-143 -245 0
-143 -244 0
-143 -272 0
-143 -271 0
-143 -297 0
-143 -296 0
-142 -172 0
-142 -171 0
-142 -170 0
-142 -169 0
-142 -197 0
-142 -196 0
-142 -222 0
-142 -221 0
-142 -247 0
-142 -246 0
-142 -245 0
-142 -244 0
-142 -272 0
-142 -271 0
-142 -297 0
-142 -296 0
-172 -171 0
-172 -170 0
-172 -169 0
-172 -197 0
-172 -196 0
-172 -222 0
-172 -221 0
-172 -247 0
-172 -246 0
-172 -245 0
-172 -244 0
-172 -272 0
-172 -271 0
-172 -297 0
-172 -296 0
-171 -170 0
-171 -169 0
-171 -197 0
-171 -196 0
-171 -222 0
-171 -221 0
-171 -247 0
-171 -246 0
-171 -245 0
-171 -244 0
-171 -272 0
-171 -271 0
-171 -297 0
-171 -296 0
-170 -169 0
-170 -197 0
-170 -196 0
-170 -222 0
-170 -221 0
-170 -247 0
-170 -246 0
-170 -245 0
-170 -244 0
-170 -272 0
-170 -271 0
-170 -297 0
-170 -296 0
-169 -197 0
-169 -196 0
-169 -222 0
-169 -221 0
-169 -247 0
-169 -246 0
-169 -245 0
-169 -244 0
-169 -272 0
-169 -271 0
-169 -297 0
-169 -296 0
-197 -196 0
-197 -222 0
-197 -221 0
-197 -247 0
-197 -246 0
-197 -245 0
-197 -244 0
-197 -272 0
-197 -271 0
-197 -297 0
-197 -296 0
-196 -222 0
-196 -221 0
-196 -247 0
-196 -246 0
-196 -245 0
-196 -244 0
-196 -272 0
-196 -271 0
-196 -297 0
-196 -296 0
-222 -221 0
-222 -247 0
-222 -246 0
-222 -245 0
-222 -244 0
-222 -272 0
-222 -271 0
-222 -297 0
-222 -296 0
-221 -247 0
-221 -246 0
-221 -245 0
-221 -244 0
-221 -272 0
-221 -271 0
-221 -297 0
-221 -296 0
-247 -246 0
-247 -245 0
-247 -244 0
-247 -272 0
-247 -271 0
-247 -297 0
-247 -296 0
-246 -245 0
-246 -244 0
-246 -272 0
-246 -271 0
-246 -297 0
-246 -296 0
-245 -244 0
-245 -272 0
-245 -271 0
-245 -297 0
-245 -296 0
-244 -272 0
-244 -271 0
-244 -297 0
-244 -296 0
-272 -271 0
-272 -297 0
-272 -296 0
-271 -297 0
-271 -296 0
-297 -296 0
-23 -22 0
-23 -21 0
-23 -20 0
-23 -19 0
-23 -18 0
-23 -48 0
-23 -47 0
-23 -46 0
-23 -45 0
-23 -44 0
-23 -43 0
-23 -73 0
-23 -72 0
-23 -98 0
-23 -97 0
-23 -96 0
-23 -95 0
-23 -123 0
-23 -122 0
-23 -121 0
-23 -120 0
-23 -119 0
-23 -118 0
-23 -148 0
-23 -147 0
-23 -146 0
-23 -145 0
-23 -144 0
-23 -143 0
-23 -173 0
-23 -172 0
-23 -171 0
-23 -170 0
-23 -198 0
-23 -197 0
-23 -223 0
-23 -222 0
-23 -248 0
-23 -247 0
-23 -246 0
-23 -245 0
-23 -273 0
-23 -272 0
-23 -298 0
-23 -297 0
-22 -21 0
-22 -20 0
-22 -19 0
-22 -18 0
-22 -48 0
-22 -47 0
-22 -46 0
-22 -45 0
-22 -44 0
-22 -43 0
-22 -73 0
-22 -72 0
-22 -98 0
-22 -97 0
-22 -96 0
-22 -95 0
-22 -123 0
-22 -122 0
-22 -121 0
-22 -120 0
-22 -119 0
-22 -118 0
-22 -148 0
-22 -147 0
-22 -146 0
-22 -145 0
-22 -144 0
-22 -143 0
-22 -173 0
-22 -172 0
-22 -171 0
-22 -170 0
-22 -198 0
-22 -197 0
-22 -223 0
-22 -222 0
-22 -248 0
-22 -247 0
-22 -246 0
-22 -245 0
-22 -273 0
-22 -272 0
-22 -298 0
-22 -297 0
-21 -20 0
-21 -19 0
-21 -18 0
-21 -48 0
-21 -47 0
-21 -46 0
-21 -45 0
-21 -44 0
-21 -43 0
-21 -73 0
-21 -72 0
-21 -98 0
-21 -97 0
-21 -96 0
-21 -95 0
-21 -123 0
-21 -122 0
-21 -121 0
-21 -120 0
-21 -119 0
-21 -118 0
-21 -148 0
-21 -147 0
-21 -146 0
-21 -145 0
-21 -144 0
-21 -143 0
-21 -173 0
-21 -172 0
-21 -171 0
-21 -170 0
-21 -198 0
-21 -197 0
-21 -223 0
-21 -222 0
-21 -248 0
-21 -247 0
-21 -246 0
-21 -245 0
-21 -273 0
-21 -272 0
-21 -298 0
-21 -297 0
-20 -19 0
-20 -18 0
-20 -48 0
-20 -47 0
-20 -46 0
-20 -45 0
-20 -44 0
-20 -43 0
-20 -73 0
-20 -72 0
-20 -98 0
-20 -97 0
-20 -96 0
-20 -95 0
-20 -123 0
-20 -122 0
-20 -121 0
-20 -120 0
-20 -119 0
-20 -118 0
-20 -148 0
-20 -147 0
-20 -146 0
-20 -145 0
-20 -144 0
-20 -143 0
-20 -173 0
-20 -172 0
-20 -171 0
-20 -170 0
-20 -198 0
-20 -197 0
-20 -223 0
-20 -222 0
-20 -248 0
-20 -247 0
-20 -246 0
-20 -245 0
-20 -273 0
-20 -272 0
-20 -298 0
-20 -297 0
-19 -18 0
-19 -48 0
-19 -47 0
-19 -46 0
-19 -45 0
-19 -44 0
-19 -43 0
-19 -73 0
-19 -72 0
-19 -98 0
-19 -97 0
-19 -96 0
-19 -95 0
-19 -123 0
-19 -122 0
-19 -121 0
-19 -120 0
-19 -119 0
-19 -118 0
-19 -148 0
-19 -147 0
-19 -146 0
-19 -145 0
-19 -144 0
-19 -143 0
-19 -173 0
-19 -172 0
-19 -171 0
-19 -170 0
-19 -198 0
-19 -197 0
-19 -223 0
-19 -222 0
-19 -248 0
-19 -247 0
-19 -246 0
-19 -245 0
-19 -273 0
-19 -272 0
-19 -298 0
-19 -297 0
-18 -48 0
-18 -47 0
-18 -46 0
-18 -45 0
-18 -44 0
-18 -43 0
-18 -73 0
-18 -72 0
-18 -98 0
-18 -97 0
-18 -96 0
-18 -95 0
-18 -123 0
-18 -122 0
-18 -121 0
-18 -120 0
-18 -119 0
-18 -118 0
-18 -148 0
-18 -147 0
-18 -146 0
-18 -145 0
-18 -144 0
-18 -143 0
-18 -173 0
-18 -172 0
-18 -171 0
-18 -170 0
-18 -198 0
-18 -197 0
-18 -223 0
-18 -222 0
-18 -248 0
-18 -247 0
-18 -246 0
-18 -245 0
-18 -273 0
-18 -272 0
-18 -298 0
-18 -297 0
-48 -47 0
-48 -46 0
-48 -45 0
-48 -44 0
-48 -43 0
-48 -73 0
-48 -72 0
-48 -98 0
-48 -97 0
-48 -96 0
-48 -95 0
-48 -123 0
-48 -122 0
-48 -121 0
-48 -120 0
-48 -119 0
-48 -118 0
-48 -148 0
-48 -147 0
-48 -146 0
-48 -145 0
-48 -144 0
-48 -143 0
-48 -173 0
-48 -172 0
-48 -171 0
-48 -170 0
-48 -198 0
-48 -197 0
-48 -223 0
-48 -222 0
-48 -248 0
-48 -247 0
-48 -246 0
-48 -245 0
-48 -273 0
-48 -272 0
-48 -298 0
-48 -297 0
-47 -46 0
-47 -45 0
-47 -44 0
-47 -43 0
-47 -73 0
-47 -72 0
-47 -98 0
-47 -97 0
-47 -96 0
-47 -95 0
-47 -123 0
-47 -122 0
-47 -121 0
-47 -120 0
-47 -119 0
-47 -118 0
-47 -148 0
-47 -147 0
-47 -146 0
-47 -145 0
-47 -144 0
-47 -143 0
-47 -173 0
-47 -172 0
-47 -171 0
-47 -170 0
-47 -198 0
-47 -197 0
-47 -223 0
-47 -222 0
-47 -248 0
-47 -247 0
-47 -246 0
-47 -245 0
-47 -273 0
-47 -272 0
-47 -298 0
-47 -297 0
-46 -45 0
-46 -44 0
-46 -43 0
-46 -73 0
-46 -72 0
-46 -98 0
-46 -97 0
-46 -96 0
-46 -95 0
-46 -123 0
-46 -122 0
-46 -121 0
-46 -120 0
-46 -119 0
-46 -118 0
-46 -148 0
-46 -147 0
-46 -146 0
-46 -145 0
-46 -144 0
-46 -143 0
-46 -173 0
-46 -172 0
-46 -171 0
-46 -170 0
-46 -198 0
-46 -197 0
-46 -223 0
-46 -222 0
-46 -248 0
-46 -247 0
-46 -246 0
-46 -245 0
-46 -273 0
-46 -272 0
-46 -298 0
-46 -297 0
-45 -44 0
-45 -43 0
-45 -73 0
-45 -72 0
-45 -98 0
-45 -97 0
-45 -96 0
-45 -95 0
-45 -123 0
-45 -122 0
-45 -121 0
-45 -120 0
-45 -119 0
-45 -118 0
-45 -148 0
-45 -147 0
-45 -146 0
-45 -145 0
-45 -144 0
-45 -143 0
-45 -173 0
-45 -172 0
-45 -171 0
-45 -170 0
-45 -198 0
-45 -197 0
-45 -223 0
-45 -222 0
-45 -248 0
-45 -247 0
-45 -246 0
-45 -245 0
-45 -273 0
-45 -272 0
-45 -298 0
-45 -297 0
-44 -43 0
-44 -73 0
-44 -72 0
-44 -98 0
-44 -97 0
-44 -96 0
-44 -95 0
-44 -123 0
-44 -122 0
-44 -121 0
-44 -120 0
-44 -119 0
-44 -118 0
-44 -148 0
-44 -147 0
-44 -146 0
-44 -145 0
-44 -144 0
-44 -143 0
-44 -173 0
-44 -172 0
-44 -171 0
-44 -170 0
-44 -198 0
-44 -197 0
-44 -223 0
-44 -222 0
-44 -248 0
-44 -247 0
-44 -246 0
-44 -245 0
-44 -273 0
-44 -272 0
-44 -298 0
-44 -297 0
-43 -73 0
-43 -72 0
-43 -98 0
-43 -97 0
-43 -96 0
-43 -95 0
-43 -123 0
-43 -122 0
-43 -121 0
-43 -120 0
-43 -119 0
-43 -118 0
-43 -148 0
-43 -147 0
-43 -146 0
-43 -145 0
-43 -144 0
-43 -143 0
-43 -173 0
-43 -172 0
-43 -171 0
-43 -170 0
-43 -198 0
-43 -197 0
-43 -223 0
-43 -222 0
-43 -248 0
-43 -247 0
-43 -246 0
-43 -245 0
-43 -273 0
-43 -272 0
-43 -298 0
-43 -297 0
-73 -72 0
-73 -98 0
-73 -97 0
-73 -96 0
-73 -95 0
-73 -123 0
-73 -122 0
-73 -121 0
-73 -120 0
-73 -119 0
-73 -118 0
-73 -148 0
-73 -147 0
-73 -146 0
-73 -145 0
-73 -144 0
-73 -143 0
-73 -173 0
-73 -172 0
-73 -171 0
-73 -170 0
-73 -198 0
-73 -197 0
-73 -223 0
-73 -222 0
-73 -248 0
-73 -247 0
-73 -246 0
-73 -245 0
-73 -273 0
-73 -272 0
-73 -298 0
-73 -297 0
-72 -98 0
-72 -97 0
-72 -96 0
-72 -95 0
-72 -123 0
-72 -122 0
-72 -121 0
-72 -120 0
-72 -119 0
-72 -118 0
-72 -148 0
-72 -147 0
-72 -146 0
-72 -145 0
-72 -144 0
-72 -143 0
-72 -173 0
-72 -172 0
-72 -171 0
-72 -170 0
-72 -198 0
-72 -197 0
-72 -223 0
-72 -222 0
-72 -248 0
-72 -247 0
-72 -246 0
-72 -245 0
-72 -273 0
-72 -272 0
-72 -298 0
-72 -297 0
-98 -97 0
-98 -96 0
-98 -95 0
-98 -123 0
-98 -122 0
-98 -121 0
-98 -120 0
-98 -119 0
-98 -118 0
-98 -148 0
-98 -147 0
-98 -146 0
-98 -145 0
-98 -144 0
-98 -143 0
-98 -173 0
-98 -172 0
-98 -171 0
-98 -170 0
-98 -198 0
-98 -197 0
-98 -223 0
-98 -222 0
-98 -248 0
-98 -247 0
-98 -246 0
-98 -245 0
-98 -273 0
-98 -272 0
-98 -298 0
-98 -297 0
-97 -96 0
-97 -95 0
-97 -123 0
-97 -122 0
-97 -121 0
-97 -120 0
-97 -119 0
-97 -118 0
-97 -148 0
-97 -147 0
-97 -146 0
-97 -145 0
-97 -144 0
-97 -143 0
-97 -173 0
-97 -172 0
-97 -171 0
-97 -170 0
-97 -198 0
-97 -197 0
-97 -223 0
-97 -222 0
-97 -248 0
-97 -247 0
-97 -246 0
-97 -245 0
-97 -273 0
-97 -272 0
-97 -298 0
-97 -297 0
-96 -95 0
-96 -123 0
-96 -122 0
-96 -121 0
-96 -120 0
-96 -119 0
-96 -118 0
-96 -148 0
-96 -147 0
-96 -146 0
-96 -145 0
-96 -144 0
-96 -143 0
-96 -173 0
-96 -172 0
-96 -171 0
-96 -170 0
-96 -198 0
-96 -197 0
-96 -223 0
-96 -222 0
-96 -248 0
-96 -247 0
-96 -246 0
-96 -245 0
-96 -273 0
-96 -272 0
-96 -298 0
-96 -297 0
-95 -123 0
-95 -122 0
-95 -121 0
-95 -120 0
-95 -119 0
-95 -118 0
-95 -148 0
-95 -147 0
-95 -146 0
-95 -145 0
-95 -144 0
-95 -143 0
-95 -173 0
-95 -172 0
-95 -171 0
-95 -170 0
-95 -198 0
-95 -197 0
-95 -223 0
-95 -222 0
-95 -248 0
-95 -247 0
-95 -246 0
-95 -245 0
-95 -273 0
-95 -272 0
-95 -298 0
-95 -297 0
-123 -122 0
-123 -121 0
-123 -120 0
-123 -119 0
-123 -118 0
-123 -148 0
-123 -147 0
-123 -146 0
-123 -145 0
-123 -144 0
-123 -143 0
-123 -173 0
-123 -172 0
-123 -171 0
-123 -170 0
-123 -198 0
-123 -197 0
-123 -223 0
-123 -222 0
-123 -248 0
-123 -247 0
-123 -246 0
-123 -245 0
-123 -273 0
-123 -272 0
-123 -298 0
-123 -297 0
-122 -121 0
-122 -120 0
-122 -119 0
-122 -118 0
-122 -148 0
-122 -147 0
-122 -146 0
-122 -145 0
-122 -144 0
-122 -143 0
-122 -173 0
-122 -172 0
-122 -171 0
-122 -170 0
-122 -198 0
-122 -197 0
-122 -223 0
-122 -222 0
-122 -248 0
-122 -247 0
-122 -246 0
-122 -245 0
-122 -273 0
-122 -272 0
-122 -298 0
-122 -297 0
-121 -120 0
-121 -119 0
-121 -118 0
-121 -148 0
-121 -147 0
-121 -146 0
-121 -145 0
-121 -144 0
-121 -143 0
-121 -173 0
-121 -172 0
-121 -171 0
-121 -170 0
-121 -198 0
-121 -197 0
-121 -223 0
-121 -222 0
-121 -248 0
-121 -247 0
-121 -246 0
-121 -245 0
-121 -273 0
-121 -272 0
-121 -298 0
-121 -297 0
-120 -119 0
-120 -118 0
-120 -148 0
-120 -147 0
-120 -146 0
-120 -145 0
-120 -144 0
-120 -143 0
-120 -173 0
-120 -172 0
-120 -171 0
-120 -170 0
-120 -198 0
-120 -197 0
-120 -223 0
-120 -222 0
-120 -248 0
-120 -247 0
-120 -246 0
-120 -245 0
-120 -273 0
-120 -272 0
-120 -298 0
-120 -297 0
-119 -118 0
-119 -148 0
-119 -147 0
-119 -146 0
-119 -145 0
-119 -144 0
-119 -143 0
-119 -173 0
-119 -172 0
-119 -171 0
-119 -170 0
-119 -198 0
-119 -197 0
-119 -223 0
-119 -222 0
-119 -248 0
-119 -247 0
-119 -246 0
-119 -245 0
-119 -273 0
-119 -272 0
-119 -298 0
-119 -297 0
-118 -148 0
-118 -147 0
-118 -146 0
-118 -145 0
-118 -144 0
-118 -143 0
-118 -173 0
-118 -172 0
-118 -171 0
-118 -170 0
-118 -198 0
-118 -197 0
-118 -223 0
-118 -222 0
-118 -248 0
-118 -247 0
-118 -246 0
-118 -245 0
-118 -273 0
-118 -272 0
-118 -298 0
-118 -297 0
-148 -147 0
-148 -146 0
-148 -145 0
-148 -144 0
-148 -143 0
-148 -173 0
-148 -172 0
-148 -171 0
-148 -170 0
-148 -198 0
-148 -197 0
-148 -223 0
-148 -222 0
-148 -248 0
-148 -247 0
-148 -246 0
-148 -245 0
-148 -273 0
-148 -272 0
-148 -298 0
-148 -297 0
-147 -146 0
-147 -145 0
-147 -144 0
-147 -143 0
-147 -173 0
-147 -172 0
-147 -171 0
-147 -170 0
-147 -198 0
-147 -197 0
-147 -223 0
-147 -222 0
-147 -248 0
-147 -247 0
-147 -246 0
-147 -245 0
-147 -273 0
-147 -272 0
-147 -298 0
-147 -297 0
-146 -145 0
-146 -144 0
-146 -143 0
-146 -173 0
-146 -172 0
-146 -171 0
-146 -170 0
-146 -198 0
-146 -197 0
-146 -223 0
-146 -222 0
-146 -248 0
-146 -247 0
-146 -246 0
-146 -245 0
-146 -273 0
-146 -272 0
-146 -298 0
-146 -297 0
-145 -144 0
-145 -143 0
-145 -173 0
-145 -172 0
-145 -171 0
-145 -170 0
-145 -198 0
-145 -197 0
-145 -223 0
-145 -222 0
-145 -248 0
-145 -247 0
-145 -246 0
-145 -245 0
-145 -273 0
-145 -272 0
-145 -298 0
-145 -297 0
-144 -143 0
-144 -173 0
-144 -172 0
-144 -171 0
-144 -170 0
-144 -198 0
-144 -197 0
-144 -223 0
-144 -222 0
-144 -248 0
-144 -247 0
-144 -246 0
-144 -245 0
-144 -273 0
-144 -272 0
-144 -298 0
-144 -297 0
-143 -173 0
-143 -172 0
-143 -171 0
-143 -170 0
-143 -198 0
-143 -197 0
-143 -223 0
-143 -222 0
-143 -248 0
-143 -247 0
-143 -246 0
-143 -245 0
-143 -273 0
-143 -272 0
-143 -298 0
-143 -297 0
-173 -172 0
-173 -171 0
-173 -170 0
-173 -198 0
-173 -197 0
-173 -223 0
-173 -222 0
-173 -248 0
-173 -247 0
-173 -246 0
-173 -245 0
-173 -273 0
-173 -272 0
-173 -298 0
-173 -297 0
-172 -171 0
-172 -170 0
-172 -198 0
-172 -197 0
-172 -223 0
-172 -222 0
-172 -248 0
-172 -247 0
-172 -246 0
-172 -245 0
-172 -273 0
-172 -272 0
-172 -298 0
-172 -297 0
-171 -170 0
-171 -198 0
-171 -197 0
-171 -223 0
-171 -222 0
-171 -248 0
-171 -247 0
-171 -246 0
-171 -245 0
-171 -273 0
-171 -272 0
-171 -298 0
-171 -297 0
-170 -198 0
-170 -197 0
-170 -223 0
-170 -222 0
-170 -248 0
-170 -247 0
-170 -246 0
-170 -245 0
-170 -273 0
-170 -272 0
-170 -298 0
-170 -297 0
-198 -197 0
-198 -223 0
-198 -222 0
-198 -248 0
-198 -247 0
-198 -246 0
-198 -245 0
-198 -273 0
-198 -272 0
-198 -298 0
-198 -297 0
-197 -223 0
-197 -222 0
-197 -248 0
-197 -247 0
-197 -246 0
-197 -245 0
-197 -273 0
-197 -272 0
-197 -298 0
-197 -297 0
-223 -222 0
-223 -248 0
-223 -247 0
-223 -246 0
-223 -245 0
-223 -273 0
-223 -272 0
-223 -298 0
-223 -297 0
-222 -248 0
-222 -247 0
-222 -246 0
-222 -245 0
-222 -273 0
-222 -272 0
-222 -298 0
-222 -297 0
-248 -247 0
-248 -246 0
-248 -245 0
-248 -273 0
-248 -272 0
-248 -298 0
-248 -297 0
-247 -246 0
-247 -245 0
-247 -273 0
-247 -272 0
-247 -298 0
-247 -297 0
-246 -245 0
-246 -273 0
-246 -272 0
-246 -298 0
-246 -297 0
-245 -273 0
-245 -272 0
-245 -298 0
-245 -297 0
-273 -272 0
-273 -298 0
-273 -297 0
-272 -298 0
-272 -297 0
-298 -297 0
-24 -23 0
-24 -22 0
-24 -21 0
-24 -20 0
-24 -19 0
-24 -49 0
-24 -48 0
-24 -47 0
-24 -46 0
-24 -45 0
-24 -44 0
-24 -74 0
-24 -73 0
-24 -99 0
-24 -98 0
-24 -97 0
-24 -96 0
-24 -124 0
-24 -123 0
-24 -122 0
-24 -121 0
-24 -120 0
-24 -119 0
-24 -149 0
-24 -148 0
-24 -147 0
-24 -146 0
-24 -145 0
-24 -144 0
-24 -174 0
-24 -173 0
-24 -172 0
-24 -171 0
-24 -199 0
-24 -198 0
-24 -224 0
-24 -223 0
-24 -249 0
-24 -248 0
-24 -247 0
-24 -246 0
-24 -274 0
-24 -273 0
-24 -299 0
-24 -298 0
-23 -22 0
-23 -21 0
-23 -20 0
-23 -19 0
-23 -49 0
-23 -48 0
-23 -47 0
-23 -46 0
-23 -45 0
-23 -44 0
-23 -74 0
-23 -73 0
-23 -99 0
-23 -98 0
-23 -97 0
-23 -96 0
-23 -124 0
-23 -123 0
-23 -122 0
-23 -121 0
-23 -120 0
-23 -119 0
-23 -149 0
-23 -148 0
-23 -147 0
-23 -146 0
-23 -145 0
-23 -144 0
-23 -174 0
-23 -173 0
-23 -172 0
-23 -171 0
-23 -199 0
-23 -198 0
-23 -224 0
-23 -223 0
-23 -249 0
-23 -248 0
-23 -247 0
-23 -246 0
-23 -274 0
-23 -273 0
-23 -299 0
-23 -298 0
-22 -21 0
-22 -20 0
-22 -19 0
-22 -49 0
-22 -48 0
-22 -47 0
-22 -46 0
-22 -45 0
-22 -44 0
-22 -74 0
-22 -73 0
-22 -99 0
-22 -98 0
-22 -97 0
-22 -96 0
-22 -124 0
-22 -123 0
-22 -122 0
-22 -121 0
-22 -120 0
-22 -119 0
-22 -149 0
-22 -148 0
-22 -147 0
-22 -146 0
-22 -145 0
-22 -144 0
-22 -174 0
-22 -173 0
-22 -172 0
-22 -171 0
-22 -199 0
-22 -198 0
-22 -224 0
-22 -223 0
-22 -249 0
-22 -248 0
-22 -247 0
-22 -246 0
-22 -274 0
-22 -273 0
-22 -299 0
-22 -298 0
-21 -20 0
-21 -19 0
-21 -49 0
-21 -48 0
-21 -47 0
-21 -46 0
-21 -45 0
-21 -44 0
-21 -74 0
-21 -73 0
-21 -99 0
-21 -98 0
-21 -97 0
-21 -96 0
-21 -124 0
-21 -123 0
-21 -122 0
-21 -121 0
-21 -120 0
-21 -119 0
-21 -149 0
-21 -148 0
-21 -147 0
-21 -146 0
-21 -145 0
-21 -144 0
-21 -174 0
-21 -173 0
-21 -172 0
-21 -171 0
-21 -199 0
-21 -198 0
-21 -224 0
-21 -223 0
-21 -249 0
-21 -248 0
-21 -247 0
-21 -246 0
-21 -274 0
-21 -273 0
-21 -299 0
-21 -298 0
-20 -19 0
-20 -49 0
-20 -48 0
-20 -47 0
-20 -46 0
-20 -45 0
-20 -44 0
-20 -74 0
-20 -73 0
-20 -99 0
-20 -98 0
-20 -97 0
-20 -96 0
-20 -124 0
-20 -123 0
-20 -122 0
-20 -121 0
-20 -120 0
-20 -119 0
-20 -149 0
-20 -148 0
-20 -147 0
-20 -146 0
-20 -145 0
-20 -144 0
-20 -174 0
-20 -173 0
-20 -172 0
-20 -171 0
-20 -199 0
-20 -198 0
-20 -224 0
-20 -223 0
-20 -249 0
-20 -248 0
-20 -247 0
-20 -246 0
-20 -274 0
-20 -273 0
-20 -299 0
-20 -298 0
-19 -49 0
-19 -48 0
-19 -47 0
-19 -46 0
-19 -45 0
-19 -44 0
-19 -74 0
-19 -73 0
-19 -99 0
-19 -98 0
-19 -97 0
-19 -96 0
-19 -124 0
-19 -123 0
-19 -122 0
-19 -121 0
-19 -120 0
-19 -119 0
-19 -149 0
-19 -148 0
-19 -147 0
-19 -146 0
-19 -145 0
-19 -144 0
-19 -174 0
-19 -173 0
-19 -172 0
-19 -171 0
-19 -199 0
-19 -198 0
-19 -224 0
-19 -223 0
-19 -249 0
-19 -248 0
-19 -247 0
-19 -246 0
-19 -274 0
-19 -273 0
-19 -299 0
-19 -298 0
-49 -48 0
-49 -47 0
-49 -46 0
-49 -45 0
-49 -44 0
-49 -74 0
-49 -73 0
-49 -99 0
-49 -98 0
-49 -97 0
-49 -96 0
-49 -124 0
-49 -123 0
-49 -122 0
-49 -121 0
-49 -120 0
-49 -119 0
-49 -149 0
-49 -148 0
-49 -147 0
-49 -146 0
-49 -145 0
-49 -144 0
-49 -174 0
-49 -173 0
-49 -172 0
-49 -171 0
-49 -199 0
-49 -198 0
-49 -224 0
-49 -223 0
-49 -249 0
-49 -248 0
-49 -247 0
-49 -246 0
-49 -274 0
-49 -273 0
-49 -299 0
-49 -298 0
-48 -47 0
-48 -46 0
-48 -45 0
-48 -44 0
-48 -74 0
-48 -73 0
-48 -99 0
-48 -98 0
-48 -97 0
-48 -96 0
-48 -124 0
-48 -123 0
-48 -122 0
-48 -121 0
-48 -120 0
-48 -119 0
-48 -149 0
-48 -148 0
-48 -147 0
-48 -146 0
-48 -145 0
-48 -144 0
-48 -174 0
-48 -173 0
-48 -172 0
-48 -171 0
-48 -199 0
-48 -198 0
-48 -224 0
-48 -223 0
-48 -249 0
-48 -248 0
-48 -247 0
-48 -246 0
-48 -274 0
-48 -273 0
-48 -299 0
-48 -298 0
-47 -46 0
-47 -45 0
-47 -44 0
-47 -74 0
-47 -73 0
-47 -99 0
-47 -98 0
-47 -97 0
-47 -96 0
-47 -124 0
-47 -123 0
-47 -122 0
-47 -121 0
-47 -120 0
-47 -119 0
-47 -149 0
-47 -148 0
-47 -147 0
-47 -146 0
-47 -145 0
-47 -144 0
-47 -174 0
-47 -173 0
-47 -172 0
-47 -171 0
-47 -199 0
-47 -198 0
-47 -224 0
-47 -223 0
-47 -249 0
-47 -248 0
-47 -247 0
-47 -246 0
-47 -274 0
-47 -273 0
-47 -299 0
-47 -298 0
-46 -45 0
-46 -44 0
-46 -74 0
-46 -73 0
-46 -99 0
-46 -98 0
-46 -97 0
-46 -96 0
-46 -124 0
-46 -123 0
-46 -122 0
-46 -121 0
-46 -120 0
-46 -119 0
-46 -149 0
-46 -148 0
-46 -147 0
-46 -146 0
-46 -145 0
-46 -144 0
-46 -174 0
-46 -173 0
-46 -172 0
-46 -171 0
-46 -199 0
-46 -198 0
-46 -224 0
-46 -223 0
-46 -249 0
-46 -248 0
-46 -247 0
-46 -246 0
-46 -274 0
-46 -273 0
-46 -299 0
-46 -298 0
-45 -44 0
-45 -74 0
-45 -73 0
-45 -99 0
-45 -98 0
-45 -97 0
-45 -96 0
-45 -124 0
-45 -123 0
-45 -122 0
-45 -121 0
-45 -120 0
-45 -119 0
-45 -149 0
-45 -148 0
-45 -147 0
-45 -146 0
-45 -145 0
-45 -144 0
-45 -174 0
-45 -173 0
-45 -172 0
-45 -171 0
-45 -199 0
-45 -198 0
-45 -224 0
-45 -223 0
-45 -249 0
-45 -248 0
-45 -247 0
-45 -246 0
-45 -274 0
-45 -273 0
-45 -299 0
-45 -298 0
-44 -74 0
-44 -73 0
-44 -99 0
-44 -98 0
-44 -97 0
-44 -96 0
-44 -124 0
-44 -123 0
-44 -122 0
-44 -121 0
-44 -120 0
-44 -119 0
-44 -149 0
-44 -148 0
-44 -147 0
-44 -146 0
-44 -145 0
-44 -144 0
-44 -174 0
-44 -173 0
-44 -172 0
-44 -171 0
-44 -199 0
-44 -198 0
-44 -224 0
-44 -223 0
-44 -249 0
-44 -248 0
-44 -247 0
-44 -246 0
-44 -274 0
-44 -273 0
-44 -299 0
-44 -298 0
-74 -73 0
-74 -99 0
-74 -98 0
-74 -97 0
-74 -96 0
-74 -124 0
-74 -123 0
-74 -122 0
-74 -121 0
-74 -120 0
-74 -119 0
-74 -149 0
-74 -148 0
-74 -147 0
-74 -146 0
-74 -145 0
-74 -144 0
-74 -174 0
-74 -173 0
-74 -172 0
-74 -171 0
-74 -199 0
-74 -198 0
-74 -224 0
-74 -223 0
-74 -249 0
-74 -248 0
-74 -247 0
-74 -246 0
-74 -274 0
-74 -273 0
-74 -299 0
-74 -298 0
-73 -99 0
-73 -98 0
-73 -97 0
-73 -96 0
-73 -124 0
-73 -123 0
-73 -122 0
-73 -121 0
-73 -120 0
-73 -119 0
-73 -149 0
-73 -148 0
-73 -147 0
-73 -146 0
-73 -145 0
-73 -144 0
-73 -174 0
-73 -173 0
-73 -172 0
-73 -171 0
-73 -199 0
-73 -198 0
-73 -224 0
-73 -223 0
-73 -249 0
-73 -248 0
-73 -247 0
-73 -246 0
-73 -274 0
-73 -273 0
-73 -299 0
-73 -298 0
-99 -98 0
-99 -97 0
-99 -96 0
-99 -124 0
-99 -123 0
-99 -122 0
-99 -121 0
-99 -120 0
-99 -119 0
-99 -149 0
-99 -148 0
-99 -147 0
-99 -146 0
-99 -145 0
-99 -144 0
-99 -174 0
-99 -173 0
-99 -172 0
-99 -171 0
-99 -199 0
-99 -198 0
-99 -224 0
-99 -223 0
-99 -249 0
-99 -248 0
-99 -247 0
-99 -246 0
-99 -274 0
-99 -273 0
-99 -299 0
-99 -298 0
-98 -97 0
-98 -96 0
-98 -124 0
-98 -123 0
-98 -122 0
-98 -121 0
-98 -120 0
-98 -119 0
-98 -149 0
-98 -148 0
-98 -147 0
-98 -146 0
-98 -145 0
-98 -144 0
-98 -174 0
-98 -173 0
-98 -172 0
-98 -171 0
-98 -199 0
-98 -198 0
-98 -224 0
-98 -223 0
-98 -249 0
-98 -248 0
-98 -247 0
-98 -246 0
-98 -274 0
-98 -273 0
-98 -299 0
-98 -298 0
-97 -96 0
-97 -124 0
-97 -123 0
-97 -122 0
-97 -121 0
-97 -120 0
-97 -119 0
-97 -149 0
-97 -148 0
-97 -147 0
-97 -146 0
-97 -145 0
-97 -144 0
-97 -174 0
-97 -173 0
-97 -172 0
-97 -171 0
-97 -199 0
-97 -198 0
-97 -224 0
-97 -223 0
-97 -249 0
-97 -248 0
-97 -247 0
-97 -246 0
-97 -274 0
-97 -273 0
-97 -299 0
-97 -298 0
-96 -124 0
-96 -123 0
-96 -122 0
-96 -121 0
-96 -120 0
-96 -119 0
-96 -149 0
-96 -148 0
-96 -147 0
-96 -146 0
-96 -145 0
-96 -144 0
-96 -174 0
-96 -173 0
-96 -172 0
-96 -171 0
-96 -199 0
-96 -198 0
-96 -224 0
-96 -223 0
-96 -249 0
-96 -248 0
-96 -247 0
-96 -246 0
-96 -274 0
-96 -273 0
-96 -299 0
-96 -298 0
-124 -123 0
-124 -122 0
-124 -121 0
-124 -120 0
-124 -119 0
-124 -149 0
-124 -148 0
-124 -147 0
-124 -146 0
-124 -145 0
-124 -144 0
-124 -174 0
-124 -173 0
-124 -172 0
-124 -171 0
-124 -199 0
-124 -198 0
-124 -224 0
-124 -223 0
-124 -249 0
-124 -248 0
-124 -247 0
-124 -246 0
-124 -274 0
-124 -273 0
-124 -299 0
-124 -298 0
-123 -122 0
-123 -121 0
-123 -120 0
-123 -119 0
-123 -149 0
-123 -148 0
-123 -147 0
-123 -146 0
-123 -145 0
-123 -144 0
-123 -174 0
-123 -173 0
-123 -172 0
-123 -171 0
-123 -199 0
-123 -198 0
-123 -224 0
-123 -223 0
-123 -249 0
-123 -248 0
-123 -247 0
-123 -246 0
-123 -274 0
-123 -273 0
-123 -299 0
-123 -298 0
-122 -121 0
-122 -120 0
-122 -119 0
-122 -149 0
-122 -148 0
-122 -147 0
-122 -146 0
-122 -145 0
-122 -144 0
-122 -174 0
-122 -173 0
-122 -172 0
-122 -171 0
-122 -199 0
-122 -198 0
-122 -224 0
-122 -223 0
-122 -249 0
-122 -248 0
-122 -247 0
-122 -246 0
-122 -274 0
-122 -273 0
-122 -299 0
-122 -298 0
-121 -120 0
-121 -119 0
-121 -149 0
-121 -148 0
-121 -147 0
-121 -146 0
-121 -145 0
-121 -144 0
-121 -174 0
-121 -173 0
-121 -172 0
-121 -171 0
-121 -199 0
-121 -198 0
-121 -224 0
-121 -223 0
-121 -249 0
-121 -248 0
-121 -247 0
-121 -246 0
-121 -274 0
-121 -273 0
-121 -299 0
-121 -298 0
-120 -119 0
-120 -149 0
-120 -148 0
-120 -147 0
-120 -146 0
-120 -145 0
-120 -144 0
-120 -174 0
-120 -173 0
-120 -172 0
-120 -171 0
-120 -199 0
-120 -198 0
-120 -224 0
-120 -223 0
-120 -249 0
-120 -248 0
-120 -247 0
-120 -246 0
-120 -274 0
-120 -273 0
-120 -299 0
-120 -298 0
-119 -149 0
-119 -148 0
-119 -147 0
-119 -146 0
-119 -145 0
-119 -144 0
-119 -174 0
-119 -173 0
-119 -172 0
-119 -171 0
-119 -199 0
-119 -198 0
-119 -224 0
-119 -223 0
-119 -249 0
-119 -248 0
-119 -247 0
-119 -246 0
-119 -274 0
-119 -273 0
-119 -299 0
-119 -298 0
-149 -148 0
-149 -147 0
-149 -146 0
-149 -145 0
-149 -144 0
-149 -174 0
-149 -173 0
-149 -172 0
-149 -171 0
-149 -199 0
-149 -198 0
-149 -224 0
-149 -223 0
-149 -249 0
-149 -248 0
-149 -247 0
-149 -246 0
-149 -274 0
-149 -273 0
-149 -299 0
-149 -298 0
-148 -147 0
-148 -146 0
-148 -145 0
-148 -144 0
-148 -174 0
-148 -173 0
-148 -172 0
-148 -171 0
-148 -199 0
-148 -198 0
-148 -224 0
-148 -223 0
-148 -249 0
-148 -248 0
-148 -247 0
-148 -246 0
-148 -274 0
-148 -273 0
-148 -299 0
-148 -298 0
-147 -146 0
-147 -145 0
-147 -144 0
-147 -174 0
-147 -173 0
-147 -172 0
-147 -171 0
-147 -199 0
-147 -198 0
-147 -224 0
-147 -223 0
-147 -249 0
-147 -248 0
-147 -247 0
-147 -246 0
-147 -274 0
-147 -273 0
-147 -299 0
-147 -298 0
-146 -145 0
-146 -144 0
-146 -174 0
-146 -173 0
-146 -172 0
-146 -171 0
-146 -199 0
-146 -198 0
-146 -224 0
-146 -223 0
-146 -249 0
-146 -248 0
-146 -247 0
-146 -246 0
-146 -274 0
-146 -273 0
-146 -299 0
-146 -298 0
-145 -144 0
-145 -174 0
-145 -173 0
-145 -172 0
-145 -171 0
-145 -199 0
-145 -198 0
-145 -224 0
-145 -223 0
-145 -249 0
-145 -248 0
-145 -247 0
-145 -246 0
-145 -274 0
-145 -273 0
-145 -299 0
-145 -298 0
-144 -174 0
-144 -173 0
-144 -172 0
-144 -171 0
-144 -199 0
-144 -198 0
-144 -224 0
-144 -223 0
-144 -249 0
-144 -248 0
-144 -247 0
-144 -246 0
-144 -274 0
-144 -273 0
-144 -299 0
-144 -298 0
-174 -173 0
-174 -172 0
-174 -171 0
-174 -199 0
-174 -198 0
-174 -224 0
-174 -223 0
-174 -249 0
-174 -248 0
-174 -247 0
-174 -246 0
-174 -274 0
-174 -273 0
-174 -299 0
-174 -298 0
-173 -172 0
-173 -171 0
-173 -199 0
-173 -198 0
-173 -224 0
-173 -223 0
-173 -249 0
-173 -248 0
-173 -247 0
-173 -246 0
-173 -274 0
-173 -273 0
-173 -299 0
-173 -298 0
-172 -171 0
-172 -199 0
-172 -198 0
-172 -224 0
-172 -223 0
-172 -249 0
-172 -248 0
-172 -247 0
-172 -246 0
-172 -274 0
-172 -273 0
-172 -299 0
-172 -298 0
-171 -199 0
-171 -198 0
-171 -224 0
-171 -223 0
-171 -249 0
-171 -248 0
-171 -247 0
-171 -246 0
-171 -274 0
-171 -273 0
-171 -299 0
-171 -298 0
-199 -198 0
-199 -224 0
-199 -223 0
-199 -249 0
-199 -248 0
-199 -247 0
-199 -246 0
-199 -274 0
-199 -273 0
-199 -299 0
-199 -298 0
-198 -224 0
-198 -223 0
-198 -249 0
-198 -248 0
-198 -247 0
-198 -246 0
-198 -274 0
-198 -273 0
-198 -299 0
-198 -298 0
-224 -223 0
-224 -249 0
-224 -248 0
-224 -247 0
-224 -246 0
-224 -274 0
-224 -273 0
-224 -299 0
-224 -298 0
-223 -249 0
-223 -248 0
-223 -247 0
-223 -246 0
-223 -274 0
-223 -273 0
-223 -299 0
-223 -298 0
-249 -248 0
-249 -247 0
-249 -246 0
-249 -274 0
-249 -273 0
-249 -299 0
-249 -298 0
-248 -247 0
-248 -246 0
-248 -274 0
-248 -273 0
-248 -299 0
-248 -298 0
-247 -246 0
-247 -274 0
-247 -273 0
-247 -299 0
-247 -298 0
-246 -274 0
-246 -273 0
-246 -299 0
-246 -298 0
-274 -273 0
-274 -299 0
-274 -298 0
-273 -299 0
-273 -298 0
-299 -298 0
-25 -24 0
-25 -23 0
-25 -22 0
-25 -21 0
-25 -20 0
-25 -50 0
-25 -49 0
-25 -48 0
-25 -47 0
-25 -46 0
-25 -45 0
-25 -75 0
-25 -74 0
-25 -100 0
-25 -99 0
-25 -98 0
-25 -97 0
-25 -125 0
-25 -124 0
-25 -123 0
-25 -122 0
-25 -121 0
-25 -120 0
-25 -150 0
-25 -149 0
-25 -148 0
-25 -147 0
-25 -146 0
-25 -145 0
-25 -175 0
-25 -174 0
-25 -173 0
-25 -172 0
-25 -200 0
-25 -199 0
-25 -225 0
-25 -224 0
-25 -250 0
-25 -249 0
-25 -248 0
-25 -247 0
-25 -275 0
-25 -274 0
-25 -300 0
-25 -299 0
-24 -23 0
-24 -22 0
-24 -21 0
-24 -20 0
-24 -50 0
-24 -49 0
-24 -48 0
-24 -47 0
-24 -46 0
-24 -45 0
-24 -75 0
-24 -74 0
-24 -100 0
-24 -99 0
-24 -98 0
-24 -97 0
-24 -125 0
-24 -124 0
-24 -123 0
-24 -122 0
-24 -121 0
-24 -120 0
-24 -150 0
-24 -149 0
-24 -148 0
-24 -147 0
-24 -146 0
-24 -145 0
-24 -175 0
-24 -174 0
-24 -173 0
-24 -172 0
-24 -200 0
-24 -199 0
-24 -225 0
-24 -224 0
-24 -250 0
-24 -249 0
-24 -248 0
-24 -247 0
-24 -275 0
-24 -274 0
-24 -300 0
-24 -299 0
-23 -22 0
-23 -21 0
-23 -20 0
-23 -50 0
-23 -49 0
-23 -48 0
-23 -47 0
-23 -46 0
-23 -45 0
-23 -75 0
-23 -74 0
-23 -100 0
-23 -99 0
-23 -98 0
-23 -97 0
-23 -125 0
-23 -124 0
-23 -123 0
-23 -122 0
-23 -121 0
-23 -120 0
-23 -150 0
-23 -149 0
-23 -148 0
-23 -147 0
-23 -146 0
-23 -145 0
-23 -175 0
-23 -174 0
-23 -173 0
-23 -172 0
-23 -200 0
-23 -199 0
-23 -225 0
-23 -224 0
-23 -250 0
-23 -249 0
-23 -248 0
-23 -247 0
-23 -275 0
-23 -274 0
-23 -300 0
-23 -299 0
-22 -21 0
-22 -20 0
-22 -50 0
-22 -49 0
-22 -48 0
-22 -47 0
-22 -46 0
-22 -45 0
-22 -75 0
-22 -74 0
-22 -100 0
-22 -99 0
-22 -98 0
-22 -97 0
-22 -125 0
-22 -124 0
-22 -123 0
-22 -122 0
-22 -121 0
-22 -120 0
-22 -150 0
-22 -149 0
-22 -148 0
-22 -147 0
-22 -146 0
-22 -145 0
-22 -175 0
-22 -174 0
-22 -173 0
-22 -172 0
-22 -200 0
-22 -199 0
-22 -225 0
-22 -224 0
-22 -250 0
-22 -249 0
-22 -248 0
-22 -247 0
-22 -275 0
-22 -274 0
-22 -300 0
-22 -299 0
-21 -20 0
-21 -50 0
-21 -49 0
-21 -48 0
-21 -47 0
-21 -46 0
-21 -45 0
-21 -75 0
-21 -74 0
-21 -100 0
-21 -99 0
-21 -98 0
-21 -97 0
-21 -125 0
-21 -124 0
-21 -123 0
-21 -122 0
-21 -121 0
-21 -120 0
-21 -150 0
-21 -149 0
-21 -148 0
-21 -147 0
-21 -146 0
-21 -145 0
-21 -175 0
-21 -174 0
-21 -173 0
-21 -172 0
-21 -200 0
-21 -199 0
-21 -225 0
-21 -224 0
-21 -250 0
-21 -249 0
-21 -248 0
-21 -247 0
-21 -275 0
-21 -274 0
-21 -300 0
-21 -299 0
-20 -50 0
-20 -49 0
-20 -48 0
-20 -47 0
-20 -46 0
-20 -45 0
-20 -75 0
-20 -74 0
-20 -100 0
-20 -99 0
-20 -98 0
-20 -97 0
-20 -125 0
-20 -124 0
-20 -123 0
-20 -122 0
-20 -121 0
-20 -120 0
-20 -150 0
-20 -149 0
-20 -148 0
-20 -147 0
-20 -146 0
-20 -145 0
-20 -175 0
-20 -174 0
-20 -173 0
-20 -172 0
-20 -200 0
-20 -199 0
-20 -225 0
-20 -224 0
-20 -250 0
-20 -249 0
-20 -248 0
-20 -247 0
-20 -275 0
-20 -274 0
-20 -300 0
-20 -299 0
-50 -49 0
-50 -48 0
-50 -47 0
-50 -46 0
-50 -45 0
-50 -75 0
-50 -74 0
-50 -100 0
-50 -99 0
-50 -98 0
-50 -97 0
-50 -125 0
-50 -124 0
-50 -123 0
-50 -122 0
-50 -121 0
-50 -120 0
-50 -150 0
-50 -149 0
-50 -148 0
-50 -147 0
-50 -146 0
-50 -145 0
-50 -175 0
-50 -174 0
-50 -173 0
-50 -172 0
-50 -200 0
-50 -199 0
-50 -225 0
-50 -224 0
-50 -250 0
-50 -249 0
-50 -248 0
-50 -247 0
-50 -275 0
-50 -274 0
-50 -300 0
-50 -299 0
-49 -48 0
-49 -47 0
-49 -46 0
-49 -45 0
-49 -75 0
-49 -74 0
-49 -100 0
-49 -99 0
-49 -98 0
-49 -97 0
-49 -125 0
-49 -124 0
-49 -123 0
-49 -122 0
-49 -121 0
-49 -120 0
-49 -150 0
-49 -149 0
-49 -148 0
-49 -147 0
-49 -146 0
-49 -145 0
-49 -175 0
-49 -174 0
-49 -173 0
-49 -172 0
-49 -200 0
-49 -199 0
-49 -225 0
-49 -224 0
-49 -250 0
-49 -249 0
-49 -248 0
-49 -247 0
-49 -275 0
-49 -274 0
-49 -300 0
-49 -299 0
-48 -47 0
-48 -46 0
-48 -45 0
-48 -75 0
-48 -74 0
-48 -100 0
-48 -99 0
-48 -98 0
-48 -97 0
-48 -125 0
-48 -124 0
-48 -123 0
-48 -122 0
-48 -121 0
-48 -120 0
-48 -150 0
-48 -149 0
-48 -148 0
-48 -147 0
-48 -146 0
-48 -145 0
-48 -175 0
-48 -174 0
-48 -173 0
-48 -172 0
-48 -200 0
-48 -199 0
-48 -225 0
-48 -224 0
-48 -250 0
-48 -249 0
-48 -248 0
-48 -247 0
-48 -275 0
-48 -274 0
-48 -300 0
-48 -299 0
-47 -46 0
-47 -45 0
-47 -75 0
-47 -74 0
-47 -100 0
-47 -99 0
-47 -98 0
-47 -97 0
-47 -125 0
-47 -124 0
-47 -123 0
-47 -122 0
-47 -121 0
-47 -120 0
-47 -150 0
-47 -149 0
-47 -148 0
-47 -147 0
-47 -146 0
-47 -145 0
-47 -175 0
-47 -174 0
-47 -173 0
-47 -172 0
-47 -200 0
-47 -199 0
-47 -225 0
-47 -224 0
-47 -250 0
-47 -249 0
-47 -248 0
-47 -247 0
-47 -275 0
-47 -274 0
-47 -300 0
-47 -299 0
-46 -45 0
-46 -75 0
-46 -74 0
-46 -100 0
-46 -99 0
-46 -98 0
-46 -97 0
-46 -125 0
-46 -124 0
-46 -123 0
-46 -122 0
-46 -121 0
-46 -120 0
-46 -150 0
-46 -149 0
-46 -148 0
-46 -147 0
-46 -146 0
-46 -145 0
-46 -175 0
-46 -174 0
-46 -173 0
-46 -172 0
-46 -200 0
-46 -199 0
-46 -225 0
-46 -224 0
-46 -250 0
-46 -249 0
-46 -248 0
-46 -247 0
-46 -275 0
-46 -274 0
-46 -300 0
-46 -299 0
-45 -75 0
-45 -74 0
-45 -100 0
-45 -99 0
-45 -98 0
-45 -97 0
-45 -125 0
-45 -124 0
-45 -123 0
-45 -122 0
-45 -121 0
-45 -120 0
-45 -150 0
-45 -149 0
-45 -148 0
-45 -147 0
-45 -146 0
-45 -145 0
-45 -175 0
-45 -174 0
-45 -173 0
-45 -172 0
-45 -200 0
-45 -199 0
-45 -225 0
-45 -224 0
-45 -250 0
-45 -249 0
-45 -248 0
-45 -247 0
-45 -275 0
-45 -274 0
-45 -300 0
-45 -299 0
-75 -74 0
-75 -100 0
-75 -99 0
-75 -98 0
-75 -97 0
-75 -125 0
-75 -124 0
-75 -123 0
-75 -122 0
-75 -121 0
-75 -120 0
-75 -150 0
-75 -149 0
-75 -148 0
-75 -147 0
-75 -146 0
-75 -145 0
-75 -175 0
-75 -174 0
-75 -173 0
-75 -172 0
-75 -200 0
-75 -199 0
-75 -225 0
-75 -224 0
-75 -250 0
-75 -249 0
-75 -248 0
-75 -247 0
-75 -275 0
-75 -274 0
-75 -300 0
-75 -299 0
-74 -100 0
-74 -99 0
-74 -98 0
-74 -97 0
-74 -125 0
-74 -124 0
-74 -123 0
-74 -122 0
-74 -121 0
-74 -120 0
-74 -150 0
-74 -149 0
-74 -148 0
-74 -147 0
-74 -146 0
-74 -145 0
-74 -175 0
-74 -174 0
-74 -173 0
-74 -172 0
-74 -200 0
-74 -199 0
-74 -225 0
-74 -224 0
-74 -250 0
-74 -249 0
-74 -248 0
-74 -247 0
-74 -275 0
-74 -274 0
-74 -300 0
-74 -299 0
-100 -99 0
-100 -98 0
-100 -97 0
-100 -125 0
-100 -124 0
-100 -123 0
-100 -122 0
-100 -121 0
-100 -120 0
-100 -150 0
-100 -149 0
-100 -148 0
-100 -147 0
-100 -146 0
-100 -145 0
-100 -175 0
-100 -174 0
-100 -173 0
-100 -172 0
-100 -200 0
-100 -199 0
-100 -225 0
-100 -224 0
-100 -250 0
-100 -249 0
-100 -248 0
-100 -247 0
-100 -275 0
-100 -274 0
-100 -300 0
-100 -299 0
-99 -98 0
-99 -97 0
-99 -125 0
-99 -124 0
-99 -123 0
-99 -122 0
-99 -121 0
-99 -120 0
-99 -150 0
-99 -149 0
-99 -148 0
-99 -147 0
-99 -146 0
-99 -145 0
-99 -175 0
-99 -174 0
-99 -173 0
-99 -172 0
-99 -200 0
-99 -199 0
-99 -225 0
-99 -224 0
-99 -250 0
-99 -249 0
-99 -248 0
-99 -247 0
-99 -275 0
-99 -274 0
-99 -300 0
-99 -299 0
-98 -97 0
-98 -125 0
-98 -124 0
-98 -123 0
-98 -122 0
-98 -121 0
-98 -120 0
-98 -150 0
-98 -149 0
-98 -148 0
-98 -147 0
-98 -146 0
-98 -145 0
-98 -175 0
-98 -174 0
-98 -173 0
-98 -172 0
-98 -200 0
-98 -199 0
-98 -225 0
-98 -224 0
-98 -250 0
-98 -249 0
-98 -248 0
-98 -247 0
-98 -275 0
-98 -274 0
-98 -300 0
-98 -299 0
-97 -125 0
-97 -124 0
-97 -123 0
-97 -122 0
-97 -121 0
-97 -120 0
-97 -150 0
-97 -149 0
-97 -148 0
-97 -147 0
-97 -146 0
-97 -145 0
-97 -175 0
-97 -174 0
-97 -173 0
-97 -172 0
-97 -200 0
-97 -199 0
-97 -225 0
-97 -224 0
-97 -250 0
-97 -249 0
-97 -248 0
-97 -247 0
-97 -275 0
-97 -274 0
-97 -300 0
-97 -299 0
-125 -124 0
-125 -123 0
-125 -122 0
-125 -121 0
-125 -120 0
-125 -150 0
-125 -149 0
-125 -148 0
-125 -147 0
-125 -146 0
-125 -145 0
-125 -175 0
-125 -174 0
-125 -173 0
-125 -172 0
-125 -200 0
-125 -199 0
-125 -225 0
-125 -224 0
-125 -250 0
-125 -249 0
-125 -248 0
-125 -247 0
-125 -275 0
-125 -274 0
-125 -300 0
-125 -299 0
-124 -123 0
-124 -122 0
-124 -121 0
-124 -120 0
-124 -150 0
-124 -149 0
-124 -148 0
-124 -147 0
-124 -146 0
-124 -145 0
-124 -175 0
-124 -174 0
-124 -173 0
-124 -172 0
-124 -200 0
-124 -199 0
-124 -225 0
-124 -224 0
-124 -250 0
-124 -249 0
-124 -248 0
-124 -247 0
-124 -275 0
-124 -274 0
-124 -300 0
-124 -299 0
-123 -122 0
-123 -121 0
-123 -120 0
-123 -150 0
-123 -149 0
-123 -148 0
-123 -147 0
-123 -146 0
-123 -145 0
-123 -175 0
-123 -174 0
-123 -173 0
-123 -172 0
-123 -200 0
-123 -199 0
-123 -225 0
-123 -224 0
-123 -250 0
-123 -249 0
-123 -248 0
-123 -247 0
-123 -275 0
-123 -274 0
-123 -300 0
-123 -299 0
-122 -121 0
-122 -120 0
-122 -150 0
-122 -149 0
-122 -148 0
-122 -147 0
-122 -146 0
-122 -145 0
-122 -175 0
-122 -174 0
-122 -173 0
-122 -172 0
-122 -200 0
-122 -199 0
-122 -225 0
-122 -224 0
-122 -250 0
-122 -249 0
-122 -248 0
-122 -247 0
-122 -275 0
-122 -274 0
-122 -300 0
-122 -299 0
-121 -120 0
-121 -150 0
-121 -149 0
-121 -148 0
-121 -147 0
-121 -146 0
-121 -145 0
-121 -175 0
-121 -174 0
-121 -173 0
-121 -172 0
-121 -200 0
-121 -199 0
-121 -225 0
-121 -224 0
-121 -250 0
-121 -249 0
-121 -248 0
-121 -247 0
-121 -275 0
-121 -274 0
-121 -300 0
-121 -299 0
-120 -150 0
-120 -149 0
-120 -148 0
-120 -147 0
-120 -146 0
-120 -145 0
-120 -175 0
-120 -174 0
-120 -173 0
-120 -172 0
-120 -200 0
-120 -199 0
-120 -225 0
-120 -224 0
-120 -250 0
-120 -249 0
-120 -248 0
-120 -247 0
-120 -275 0
-120 -274 0
-120 -300 0
-120 -299 0
-150 -149 0
-150 -148 0
-150 -147 0
-150 -146 0
-150 -145 0
-150 -175 0
-150 -174 0
-150 -173 0
-150 -172 0
-150 -200 0
-150 -199 0
-150 -225 0
-150 -224 0
-150 -250 0
-150 -249 0
-150 -248 0
-150 -247 0
-150 -275 0
-150 -274 0
-150 -300 0
-150 -299 0
-149 -148 0
-149 -147 0
-149 -146 0
-149 -145 0
-149 -175 0
-149 -174 0
-149 -173 0
-149 -172 0
-149 -200 0
-149 -199 0
-149 -225 0
-149 -224 0
-149 -250 0
-149 -249 0
-149 -248 0
-149 -247 0
-149 -275 0
-149 -274 0
-149 -300 0
-149 -299 0
-148 -147 0
-148 -146 0
-148 -145 0
-148 -175 0
-148 -174 0
-148 -173 0
-148 -172 0
-148 -200 0
-148 -199 0
-148 -225 0
-148 -224 0
-148 -250 0
-148 -249 0
-148 -248 0
-148 -247 0
-148 -275 0
-148 -274 0
-148 -300 0
-148 -299 0
-147 -146 0
-147 -145 0
-147 -175 0
-147 -174 0
-147 -173 0
-147 -172 0
-147 -200 0
-147 -199 0
-147 -225 0
-147 -224 0
-147 -250 0
-147 -249 0
-147 -248 0
-147 -247 0
-147 -275 0
-147 -274 0
-147 -300 0
-147 -299 0
-146 -145 0
-146 -175 0
-146 -174 0
-146 -173 0
-146 -172 0
-146 -200 0
-146 -199 0
-146 -225 0
-146 -224 0
-146 -250 0
-146 -249 0
-146 -248 0
-146 -247 0
-146 -275 0
-146 -274 0
-146 -300 0
-146 -299 0
-145 -175 0
-145 -174 0
-145 -173 0
-145 -172 0
-145 -200 0
-145 -199 0
-145 -225 0
-145 -224 0
-145 -250 0
-145 -249 0
-145 -248 0
-145 -247 0
-145 -275 0
-145 -274 0
-145 -300 0
-145 -299 0
-175 -174 0
-175 -173 0
-175 -172 0
-175 -200 0
-175 -199 0
-175 -225 0
-175 -224 0
-175 -250 0
-175 -249 0
-175 -248 0
-175 -247 0
-175 -275 0
-175 -274 0
-175 -300 0
-175 -299 0
-174 -173 0
-174 -172 0
-174 -200 0
-174 -199 0
-174 -225 0
-174 -224 0
-174 -250 0
-174 -249 0
-174 -248 0
-174 -247 0
-174 -275 0
-174 -274 0
-174 -300 0
-174 -299 0
-173 -172 0
-173 -200 0
-173 -199 0
-173 -225 0
-173 -224 0
-173 -250 0
-173 -249 0
-173 -248 0
-173 -247 0
-173 -275 0
-173 -274 0
-173 -300 0
-173 -299 0
-172 -200 0
-172 -199 0
-172 -225 0
-172 -224 0
-172 -250 0
-172 -249 0
-172 -248 0
-172 -247 0
-172 -275 0
-172 -274 0
-172 -300 0
-172 -299 0
-200 -199 0
-200 -225 0
-200 -224 0
-200 -250 0
-200 -249 0
-200 -248 0
-200 -247 0
-200 -275 0
-200 -274 0
-200 -300 0
-200 -299 0
-199 -225 0
-199 -224 0
-199 -250 0
-199 -249 0
-199 -248 0
-199 -247 0
-199 -275 0
-199 -274 0
-199 -300 0
-199 -299 0
-225 -224 0
-225 -250 0
-225 -249 0
-225 -248 0
-225 -247 0
-225 -275 0
-225 -274 0
-225 -300 0
-225 -299 0
-224 -250 0
-224 -249 0
-224 -248 0
-224 -247 0
-224 -275 0
-224 -274 0
-224 -300 0
-224 -299 0
-250 -249 0
-250 -248 0
-250 -247 0
-250 -275 0
-250 -274 0
-250 -300 0
-250 -299 0
-249 -248 0
-249 -247 0
-249 -275 0
-249 -274 0
-249 -300 0
-249 -299 0
-248 -247 0
-248 -275 0
-248 -274 0
-248 -300 0
-248 -299 0
-247 -275 0
-247 -274 0
-247 -300 0
-247 -299 0
-275 -274 0
-275 -300 0
-275 -299 0
-274 -300 0
-274 -299 0
-300 -299 0
-1 -82 -211 0
-2 -83 -212 0
-3 -84 -213 0
-4 -85 -214 0
-5 -86 -215 0
-6 -87 -216 0
-7 -88 -217 0
-8 -89 -218 0
-9 -90 -219 0
-10 -91 -220 0
-11 -92 -221 0
-12 -93 -222 0
-13 -94 -223 0
-14 -95 -224 0
-1 -207 -84 0
-2 -208 -85 0
-3 -209 -86 0
-4 -210 -87 0
-5 -211 -88 0
-6 -212 -89 0
-7 -213 -90 0
-8 -214 -91 0
-9 -215 -92 0
-10 -216 -93 0
-11 -217 -94 0
-12 -218 -95 0
-13 -219 -96 0
-14 -220 -97 0
-26 -57 -234 0
-27 -58 -235 0
-28 -59 -236 0
-29 -60 -237 0
-30 -61 -238 0
-31 -62 -239 0
-32 -63 -240 0
-33 -64 -241 0
-34 -65 -242 0
-35 -66 -243 0
-36 -67 -244 0
-37 -68 -245 0
-38 -69 -246 0
-39 -70 -247 0
-26 -57 -259 0
-27 -58 -260 0
-28 -59 -261 0
-29 -60 -262 0
-30 -61 -263 0
-31 -62 -264 0
-32 -63 -265 0
-33 -64 -266 0
-34 -65 -267 0
-35 -66 -268 0
-36 -67 -269 0
-37 -68 -270 0
-38 -69 -271 0
-39 -70 -272 0
-40 -71 -273 0
-41 -72 -274 0
-26 -232 -61 0
-27 -233 -62 0
-28 -234 -63 0
-29 -235 -64 0
-30 -236 -65 0
-31 -237 -66 0
-32 -238 -67 0
-33 -239 -68 0
-34 -240 -69 0
-35 -241 -70 0
-36 -242 -71 0
-37 -243 -72 0
-38 -244 -73 0
-39 -245 -74 0
-26 -232 -261 0
-27 -233 -262 0
-28 -234 -263 0
-29 -235 -264 0
-30 -236 -265 0
-31 -237 -266 0
-32 -238 -267 0
-33 -239 -268 0
-34 -240 -269 0
-35 -241 -270 0
-36 -242 -271 0
-37 -243 -272 0
-38 -244 -273 0
-39 -245 -274 0
-26 -257 -59 0
-27 -258 -60 0
-28 -259 -61 0
-29 -260 -62 0
-30 -261 -63 0
-31 -262 -64 0
-32 -263 -65 0
-33 -264 -66 0
-34 -265 -67 0
-35 -266 -68 0
-36 -267 -69 0
-37 -268 -70 0
-38 -269 -71 0
-39 -270 -72 0
-40 -271 -73 0
-41 -272 -74 0
-26 -257 -234 0
-27 -258 -235 0
-28 -259 -236 0
-29 -260 -237 0
-30 -261 -238 0
-31 -262 -239 0
-32 -263 -240 0
-33 -264 -241 0
-34 -265 -242 0
-35 -266 -243 0
-36 -267 -244 0
-37 -268 -245 0
-38 -269 -246 0
-39 -270 -247 0
-51 -28 -234 0
-52 -29 -235 0
-53 -30 -236 0
-54 -31 -237 0
-55 -32 -238 0
-56 -33 -239 0
-57 -34 -240 0
-58 -35 -241 0
-59 -36 -242 0
-60 -37 -243 0
-61 -38 -244 0
-62 -39 -245 0
-63 -40 -246 0
-64 -41 -247 0
-51 -28 -259 0
-52 -29 -260 0
-53 -30 -261 0
-54 -31 -262 0
-55 -32 -263 0
-56 -33 -264 0
-57 -34 -265 0
-58 -35 -266 0
-59 -36 -267 0
-60 -37 -268 0
-61 -38 -269 0
-62 -39 -270 0
-63 -40 -271 0
-64 -41 -272 0
-65 -42 -273 0
-66 -43 -274 0
-51 -228 -32 0
-52 -229 -33 0
-53 -230 -34 0
-54 -231 -35 0
-55 -232 -36 0
-56 -233 -37 0
-57 -234 -38 0
-58 -235 -39 0
-59 -236 -40 0
-60 -237 -41 0
-61 -238 -42 0
-62 -239 -43 0
-63 -240 -44 0
-64 -241 -45 0
-51 -228 -257 0
-52 -229 -258 0
-53 -230 -259 0
-54 -231 -260 0
-55 -232 -261 0
-56 -233 -262 0
-57 -234 -263 0
-58 -235 -264 0
-59 -236 -265 0
-60 -237 -266 0
-61 -238 -267 0
-62 -239 -268 0
-63 -240 -269 0
-64 -241 -270 0
-65 -242 -271 0
-66 -243 -272 0
-67 -244 -273 0
-68 -245 -274 0
-51 -253 -30 0
-52 -254 -31 0
-53 -255 -32 0
-54 -256 -33 0
-55 -257 -34 0
-56 -258 -35 0
-57 -259 -36 0
-58 -260 -37 0
-59 -261 -38 0
-60 -262 -39 0
-61 -263 -40 0
-62 -264 -41 0
-63 -265 -42 0
-64 -266 -43 0
-65 -267 -44 0
-66 -268 -45 0
-51 -253 -230 0
-52 -254 -231 0
-53 -255 -232 0
-54 -256 -233 0
-55 -257 -234 0
-56 -258 -235 0
-57 -259 -236 0
-58 -260 -237 0
-59 -261 -238 0
-60 -262 -239 0
-61 -263 -240 0
-62 -264 -241 0
-63 -265 -242 0
-64 -266 -243 0
-65 -267 -244 0
-66 -268 -245 0
-67 -269 -246 0
-68 -270 -247 0
-76 -5 -211 0
-77 -6 -212 0
-78 -7 -213 0
-79 -8 -214 0
-80 -9 -215 0
-81 -10 -216 0
-82 -11 -217 0
-83 -12 -218 0
-84 -13 -219 0
-85 -14 -220 0
-86 -15 -221 0
-87 -16 -222 0
-88 -17 -223 0
-89 -18 -224 0
-76 -205 -7 0
-77 -206 -8 0
-78 -207 -9 0
-79 -208 -10 0
-80 -209 -11 0
-81 -210 -12 0
-82 -211 -13 0
-83 -212 -14 0
-84 -213 -15 0
-85 -214 -16 0
-86 -215 -17 0
-87 -216 -18 0
-88 -217 -19 0
-89 -218 -20 0
-101 -132 -163 0
-102 -133 -164 0
-103 -134 -165 0
-104 -135 -166 0
-105 -136 -167 0
-106 -137 -168 0
-107 -138 -169 0
-108 -139 -170 0
-109 -140 -171 0
-110 -141 -172 0
-101 -132 -188 0
-102 -133 -189 0
-103 -134 -190 0
-104 -135 -191 0
-105 -136 -192 0
-106 -137 -193 0
-107 -138 -194 0
-108 -139 -195 0
-109 -140 -196 0
-110 -141 -197 0
-111 -142 -198 0
-112 -143 -199 0
-101 -132 -288 0
-102 -133 -289 0
-103 -134 -290 0
-104 -135 -291 0
-105 -136 -292 0
-106 -137 -293 0
-107 -138 -294 0
-108 -139 -295 0
-109 -140 -296 0
-110 -141 -297 0
-111 -142 -298 0
-112 -143 -299 0
-101 -157 -136 0
-102 -158 -137 0
-103 -159 -138 0
-104 -160 -139 0
-105 -161 -140 0
-106 -162 -141 0
-107 -163 -142 0
-108 -164 -143 0
-109 -165 -144 0
-110 -166 -145 0
-101 -157 -186 0
-102 -158 -187 0
-103 -159 -188 0
-104 -160 -189 0
-105 -161 -190 0
-106 -162 -191 0
-107 -163 -192 0
-108 -164 -193 0
-109 -165 -194 0
-110 -166 -195 0
-111 -167 -196 0
-112 -168 -197 0
-113 -169 -198 0
-114 -170 -199 0
-101 -157 -286 0
-102 -158 -287 0
-103 -159 -288 0
-104 -160 -289 0
-105 -161 -290 0
-106 -162 -291 0
-107 -163 -292 0
-108 -164 -293 0
-109 -165 -294 0
-110 -166 -295 0
-111 -167 -296 0
-112 -168 -297 0
-113 -169 -298 0
-114 -170 -299 0
-101 -182 -134 0
-102 -183 -135 0
-103 -184 -136 0
-104 -185 -137 0
-105 -186 -138 0
-106 -187 -139 0
-107 -188 -140 0
-108 -189 -141 0
-109 -190 -142 0
-110 -191 -143 0
-111 -192 -144 0
-112 -193 -145 0
-101 -182 -159 0
-102 -183 -160 0
-103 -184 -161 0
-104 -185 -162 0
-105 -186 -163 0
-106 -187 -164 0
-107 -188 -165 0
-108 -189 -166 0
-109 -190 -167 0
-110 -191 -168 0
-111 -192 -169 0
-112 -193 -170 0
-113 -194 -171 0
-114 -195 -172 0
-101 -182 -284 0
-102 -183 -285 0
-103 -184 -286 0
-104 -185 -287 0
-105 -186 -288 0
-106 -187 -289 0
-107 -188 -290 0
-108 -189 -291 0
-109 -190 -292 0
-110 -191 -293 0
-111 -192 -294 0
-112 -193 -295 0
-113 -194 -296 0
-114 -195 -297 0
-115 -196 -298 0
-116 -197 -299 0
-101 -282 -134 0
-102 -283 -135 0
-103 -284 -136 0
-104 -285 -137 0
-105 -286 -138 0
-106 -287 -139 0
-107 -288 -140 0
-108 -289 -141 0
-109 -290 -142 0
-110 -291 -143 0
-111 -292 -144 0
-112 -293 -145 0
-101 -282 -159 0
-102 -283 -160 0
-103 -284 -161 0
-104 -285 -162 0
-105 -286 -163 0
-106 -287 -164 0
-107 -288 -165 0
-108 -289 -166 0
-109 -290 -167 0
-110 -291 -168 0
-111 -292 -169 0
-112 -293 -170 0
-113 -294 -171 0
-114 -295 -172 0
-101 -282 -184 0
-102 -283 -185 0
-103 -284 -186 0
-104 -285 -187 0
-105 -286 -188 0
-106 -287 -189 0
-107 -288 -190 0
-108 -289 -191 0
-109 -290 -192 0
-110 -291 -193 0
-111 -292 -194 0
-112 -293 -195 0
-113 -294 -196 0
-114 -295 -197 0
-115 -296 -198 0
-116 -297 -199 0
-126 -107 -163 0
-127 -108 -164 0
-128 -109 -165 0
-129 -110 -166 0
-130 -111 -167 0
-131 -112 -168 0
-132 -113 -169 0
-133 -114 -170 0
-134 -115 -171 0
-135 -116 -172 0
-126 -107 -188 0
-127 -108 -189 0
-128 -109 -190 0
-129 -110 -191 0
-130 -111 -192 0
-131 -112 -193 0
-132 -113 -194 0
-133 -114 -195 0
-134 -115 -196 0
-135 -116 -197 0
-136 -117 -198 0
-137 -118 -199 0
-126 -107 -288 0
-127 -108 -289 0
-128 -109 -290 0
-129 -110 -291 0
-130 -111 -292 0
-131 -112 -293 0
-132 -113 -294 0
-133 -114 -295 0
-134 -115 -296 0
-135 -116 -297 0
-136 -117 -298 0
-137 -118 -299 0
-126 -157 -111 0
-127 -158 -112 0
-128 -159 -113 0
-129 -160 -114 0
-130 -161 -115 0
-131 -162 -116 0
-132 -163 -117 0
-133 -164 -118 0
-134 -165 -119 0
-135 -166 -120 0
-126 -157 -186 0
-127 -158 -187 0
-128 -159 -188 0
-129 -160 -189 0
-130 -161 -190 0
-131 -162 -191 0
-132 -163 -192 0
-133 -164 -193 0
-134 -165 -194 0
-135 -166 -195 0
-136 -167 -196 0
-137 -168 -197 0
-138 -169 -198 0
-139 -170 -199 0
-126 -157 -286 0
-127 -158 -287 0
-128 -159 -288 0
-129 -160 -289 0
-130 -161 -290 0
-131 -162 -291 0
-132 -163 -292 0
-133 -164 -293 0
-134 -165 -294 0
-135 -166 -295 0
-136 -167 -296 0
-137 -168 -297 0
-138 -169 -298 0
-139 -170 -299 0
-126 -182 -109 0
-127 -183 -110 0
-128 -184 -111 0
-129 -185 -112 0
-130 -186 -113 0
-131 -187 -114 0
-132 -188 -115 0
-133 -189 -116 0
-134 -190 -117 0
-135 -191 -118 0
-136 -192 -119 0
-137 -193 -120 0
-126 -182 -159 0
-127 -183 -160 0
-128 -184 -161 0
-129 -185 -162 0
-130 -186 -163 0
-131 -187 -164 0
-132 -188 -165 0
-133 -189 -166 0
-134 -190 -167 0
-135 -191 -168 0
-136 -192 -169 0
-137 -193 -170 0
-138 -194 -171 0
-139 -195 -172 0
-126 -182 -284 0
-127 -183 -285 0
-128 -184 -286 0
-129 -185 -287 0
-130 -186 -288 0
-131 -187 -289 0
-132 -188 -290 0
-133 -189 -291 0
-134 -190 -292 0
-135 -191 -293 0
-136 -192 -294 0
-137 -193 -295 0
-138 -194 -296 0
-139 -195 -297 0
-140 -196 -298 0
-141 -197 -299 0
-126 -282 -109 0
-127 -283 -110 0
-128 -284 -111 0
-129 -285 -112 0
-130 -286 -113 0
-131 -287 -114 0
-132 -288 -115 0
-133 -289 -116 0
-134 -290 -117 0
-135 -291 -118 0
-136 -292 -119 0
-137 -293 -120 0
-126 -282 -159 0
-127 -283 -160 0
-128 -284 -161 0
-129 -285 -162 0
-130 -286 -163 0
-131 -287 -164 0
-132 -288 -165 0
-133 -289 -166 0
-134 -290 -167 0
-135 -291 -168 0
-136 -292 -169 0
-137 -293 -170 0
-138 -294 -171 0
-139 -295 -172 0
-126 -282 -184 0
-127 -283 -185 0
-128 -284 -186 0
-129 -285 -187 0
-130 -286 -188 0
-131 -287 -189 0
-132 -288 -190 0
-133 -289 -191 0
-134 -290 -192 0
-135 -291 -193 0
-136 -292 -194 0
-137 -293 -195 0
-138 -294 -196 0
-139 -295 -197 0
-140 -296 -198 0
-141 -297 -199 0
-151 -105 -136 0
-152 -106 -137 0
-153 -107 -138 0
-154 -108 -139 0
-155 -109 -140 0
-156 -110 -141 0
-157 -111 -142 0
-158 -112 -143 0
-159 -113 -144 0
-160 -114 -145 0
-151 -105 -186 0
-152 -106 -187 0
-153 -107 -188 0
-154 -108 -189 0
-155 -109 -190 0
-156 -110 -191 0
-157 -111 -192 0
-158 -112 -193 0
-159 -113 -194 0
-160 -114 -195 0
-161 -115 -196 0
-162 -116 -197 0
-163 -117 -198 0
-164 -118 -199 0
-151 -105 -286 0
-152 -106 -287 0
-153 -107 -288 0
-154 -108 -289 0
-155 -109 -290 0
-156 -110 -291 0
-157 -111 -292 0
-158 -112 -293 0
-159 -113 -294 0
-160 -114 -295 0
-161 -115 -296 0
-162 -116 -297 0
-163 -117 -298 0
-164 -118 -299 0
-151 -130 -111 0
-152 -131 -112 0
-153 -132 -113 0
-154 -133 -114 0
-155 -134 -115 0
-156 -135 -116 0
-157 -136 -117 0
-158 -137 -118 0
-159 -138 -119 0
-160 -139 -120 0
-151 -130 -186 0
-152 -131 -187 0
-153 -132 -188 0
-154 -133 -189 0
-155 -134 -190 0
-156 -135 -191 0
-157 -136 -192 0
-158 -137 -193 0
-159 -138 -194 0
-160 -139 -195 0
-161 -140 -196 0
-162 -141 -197 0
-163 -142 -198 0
-164 -143 -199 0
-151 -130 -286 0
-152 -131 -287 0
-153 -132 -288 0
-154 -133 -289 0
-155 -134 -290 0
-156 -135 -291 0
-157 -136 -292 0
-158 -137 -293 0
-159 -138 -294 0
-160 -139 -295 0
-161 -140 -296 0
-162 -141 -297 0
-163 -142 -298 0
-164 -143 -299 0
-151 -180 -107 0
-152 -181 -108 0
-153 -182 -109 0
-154 -183 -110 0
-155 -184 -111 0
-156 -185 -112 0
-157 -186 -113 0
-158 -187 -114 0
-159 -188 -115 0
-160 -189 -116 0
-161 -190 -117 0
-162 -191 -118 0
-163 -192 -119 0
-164 -193 -120 0
-151 -180 -132 0
-152 -181 -133 0
-153 -182 -134 0
-154 -183 -135 0
-155 -184 -136 0
-156 -185 -137 0
-157 -186 -138 0
-158 -187 -139 0
-159 -188 -140 0
-160 -189 -141 0
-161 -190 -142 0
-162 -191 -143 0
-163 -192 -144 0
-164 -193 -145 0
-151 -180 -282 0
-152 -181 -283 0
-153 -182 -284 0
-154 -183 -285 0
-155 -184 -286 0
-156 -185 -287 0
-157 -186 -288 0
-158 -187 -289 0
-159 -188 -290 0
-160 -189 -291 0
-161 -190 -292 0
-162 -191 -293 0
-163 -192 -294 0
-164 -193 -295 0
-165 -194 -296 0
-166 -195 -297 0
-167 -196 -298 0
-168 -197 -299 0
-151 -280 -107 0
-152 -281 -108 0
-153 -282 -109 0
-154 -283 -110 0
-155 -284 -111 0
-156 -285 -112 0
-157 -286 -113 0
-158 -287 -114 0
-159 -288 -115 0
-160 -289 -116 0
-161 -290 -117 0
-162 -291 -118 0
-163 -292 -119 0
-164 -293 -120 0
-151 -280 -132 0
-152 -281 -133 0
-153 -282 -134 0
-154 -283 -135 0
-155 -284 -136 0
-156 -285 -137 0
-157 -286 -138 0
-158 -287 -139 0
-159 -288 -140 0
-160 -289 -141 0
-161 -290 -142 0
-162 -291 -143 0
-163 -292 -144 0
-164 -293 -145 0
-151 -280 -182 0
-152 -281 -183 0
-153 -282 -184 0
-154 -283 -185 0
-155 -284 -186 0
-156 -285 -187 0
-157 -286 -188 0
-158 -287 -189 0
-159 -288 -190 0
-160 -289 -191 0
-161 -290 -192 0
-162 -291 -193 0
-163 -292 -194 0
-164 -293 -195 0
-165 -294 -196 0
-166 -295 -197 0
-167 -296 -198 0
-168 -297 -199 0
-176 -103 -134 0
-177 -104 -135 0
-178 -105 -136 0
-179 -106 -137 0
-180 -107 -138 0
-181 -108 -139 0
-182 -109 -140 0
-183 -110 -141 0
-184 -111 -142 0
-185 -112 -143 0
-186 -113 -144 0
-187 -114 -145 0
-176 -103 -159 0
-177 -104 -160 0
-178 -105 -161 0
-179 -106 -162 0
-180 -107 -163 0
-181 -108 -164 0
-182 -109 -165 0
-183 -110 -166 0
-184 -111 -167 0
-185 -112 -168 0
-186 -113 -169 0
-187 -114 -170 0
-188 -115 -171 0
-189 -116 -172 0
-176 -103 -284 0
-177 -104 -285 0
-178 -105 -286 0
-179 -106 -287 0
-180 -107 -288 0
-181 -108 -289 0
-182 -109 -290 0
-183 -110 -291 0
-184 -111 -292 0
-185 -112 -293 0
-186 -113 -294 0
-187 -114 -295 0
-188 -115 -296 0
-189 -116 -297 0
-190 -117 -298 0
-191 -118 -299 0
-176 -128 -109 0
-177 -129 -110 0
-178 -130 -111 0
-179 -131 -112 0
-180 -132 -113 0
-181 -133 -114 0
-182 -134 -115 0
-183 -135 -116 0
-184 -136 -117 0
-185 -137 -118 0
-186 -138 -119 0
-187 -139 -120 0
-176 -128 -159 0
-177 -129 -160 0
-178 -130 -161 0
-179 -131 -162 0
-180 -132 -163 0
-181 -133 -164 0
-182 -134 -165 0
-183 -135 -166 0
-184 -136 -167 0
-185 -137 -168 0
-186 -138 -169 0
-187 -139 -170 0
-188 -140 -171 0
-189 -141 -172 0
-176 -128 -284 0
-177 -129 -285 0
-178 -130 -286 0
-179 -131 -287 0
-180 -132 -288 0
-181 -133 -289 0
-182 -134 -290 0
-183 -135 -291 0
-184 -136 -292 0
-185 -137 -293 0
-186 -138 -294 0
-187 -139 -295 0
-188 -140 -296 0
-189 -141 -297 0
-190 -142 -298 0
-191 -143 -299 0
-176 -153 -107 0
-177 -154 -108 0
-178 -155 -109 0
-179 -156 -110 0
-180 -157 -111 0
-181 -158 -112 0
-182 -159 -113 0
-183 -160 -114 0
-184 -161 -115 0
-185 -162 -116 0
-186 -163 -117 0
-187 -164 -118 0
-188 -165 -119 0
-189 -166 -120 0
-176 -153 -132 0
-177 -154 -133 0
-178 -155 -134 0
-179 -156 -135 0
-180 -157 -136 0
-181 -158 -137 0
-182 -159 -138 0
-183 -160 -139 0
-184 -161 -140 0
-185 -162 -141 0
-186 -163 -142 0
-187 -164 -143 0
-188 -165 -144 0
-189 -166 -145 0
-176 -153 -282 0
-177 -154 -283 0
-178 -155 -284 0
-179 -156 -285 0
-180 -157 -286 0
-181 -158 -287 0
-182 -159 -288 0
-183 -160 -289 0
-184 -161 -290 0
-185 -162 -291 0
-186 -163 -292 0
-187 -164 -293 0
-188 -165 -294 0
-189 -166 -295 0
-190 -167 -296 0
-191 -168 -297 0
-192 -169 -298 0
-193 -170 -299 0
-176 -278 -105 0
-177 -279 -106 0
-178 -280 -107 0
-179 -281 -108 0
-180 -282 -109 0
-181 -283 -110 0
-182 -284 -111 0
-183 -285 -112 0
-184 -286 -113 0
-185 -287 -114 0
-186 -288 -115 0
-187 -289 -116 0
-188 -290 -117 0
-189 -291 -118 0
-190 -292 -119 0
-191 -293 -120 0
-176 -278 -130 0
-177 -279 -131 0
-178 -280 -132 0
-179 -281 -133 0
-180 -282 -134 0
-181 -283 -135 0
-182 -284 -136 0
-183 -285 -137 0
-184 -286 -138 0
-185 -287 -139 0
-186 -288 -140 0
-187 -289 -141 0
-188 -290 -142 0
-189 -291 -143 0
-190 -292 -144 0
-191 -293 -145 0
-176 -278 -155 0
-177 -279 -156 0
-178 -280 -157 0
-179 -281 -158 0
-180 -282 -159 0
-181 -283 -160 0
-182 -284 -161 0
-183 -285 -162 0
-184 -286 -163 0
-185 -287 -164 0
-186 -288 -165 0
-187 -289 -166 0
-188 -290 -167 0
-189 -291 -168 0
-190 -292 -169 0
-191 -293 -170 0
-192 -294 -171 0
-193 -295 -172 0
-201 -3 -84 0
-202 -4 -85 0
-203 -5 -86 0
-204 -6 -87 0
-205 -7 -88 0
-206 -8 -89 0
-207 -9 -90 0
-208 -10 -91 0
-209 -11 -92 0
-210 -12 -93 0
-211 -13 -94 0
-212 -14 -95 0
-213 -15 -96 0
-214 -16 -97 0
-201 -78 -7 0
-202 -79 -8 0
-203 -80 -9 0
-204 -81 -10 0
-205 -82 -11 0
-206 -83 -12 0
-207 -84 -13 0
-208 -85 -14 0
-209 -86 -15 0
-210 -87 -16 0
-211 -88 -17 0
-212 -89 -18 0
-213 -90 -19 0
-214 -91 -20 0
-226 -30 -61 0
-227 -31 -62 0
-228 -32 -63 0
-229 -33 -64 0
-230 -34 -65 0
-231 -35 -66 0
-232 -36 -67 0
-233 -37 -68 0
-234 -38 -69 0
-235 -39 -70 0
-236 -40 -71 0
-237 -41 -72 0
-238 -42 -73 0
-239 -43 -74 0
-226 -30 -261 0
-227 -31 -262 0
-228 -32 -263 0
-229 -33 -264 0
-230 -34 -265 0
-231 -35 -266 0
-232 -36 -267 0
-233 -37 -268 0
-234 -38 -269 0
-235 -39 -270 0
-236 -40 -271 0
-237 -41 -272 0
-238 -42 -273 0
-239 -43 -274 0
-226 -55 -32 0
-227 -56 -33 0
-228 -57 -34 0
-229 -58 -35 0
-230 -59 -36 0
-231 -60 -37 0
-232 -61 -38 0
-233 -62 -39 0
-234 -63 -40 0
-235 -64 -41 0
-236 -65 -42 0
-237 -66 -43 0
-238 -67 -44 0
-239 -68 -45 0
-226 -55 -257 0
-227 -56 -258 0
-228 -57 -259 0
-229 -58 -260 0
-230 -59 -261 0
-231 -60 -262 0
-232 -61 -263 0
-233 -62 -264 0
-234 -63 -265 0
-235 -64 -266 0
-236 -65 -267 0
-237 -66 -268 0
-238 -67 -269 0
-239 -68 -270 0
-240 -69 -271 0
-241 -70 -272 0
-242 -71 -273 0
-243 -72 -274 0
-226 -255 -32 0
-227 -256 -33 0
-228 -257 -34 0
-229 -258 -35 0
-230 -259 -36 0
-231 -260 -37 0
-232 -261 -38 0
-233 -262 -39 0
-234 -263 -40 0
-235 -264 -41 0
-236 -265 -42 0
-237 -266 -43 0
-238 -267 -44 0
-239 -268 -45 0
-226 -255 -57 0
-227 -256 -58 0
-228 -257 -59 0
-229 -258 -60 0
-230 -259 -61 0
-231 -260 -62 0
-232 -261 -63 0
-233 -262 -64 0
-234 -263 -65 0
-235 -264 -66 0
-236 -265 -67 0
-237 -266 -68 0
-238 -267 -69 0
-239 -268 -70 0
-240 -269 -71 0
-241 -270 -72 0
-242 -271 -73 0
-243 -272 -74 0
-251 -28 -59 0
-252 -29 -60 0
-253 -30 -61 0
-254 -31 -62 0
-255 -32 -63 0
-256 -33 -64 0
-257 -34 -65 0
-258 -35 -66 0
-259 -36 -67 0
-260 -37 -68 0
-261 -38 -69 0
-262 -39 -70 0
-263 -40 -71 0
-264 -41 -72 0
-265 -42 -73 0
-266 -43 -74 0
-251 -28 -234 0
-252 -29 -235 0
-253 -30 -236 0
-254 -31 -237 0
-255 -32 -238 0
-256 -33 -239 0
-257 -34 -240 0
-258 -35 -241 0
-259 -36 -242 0
-260 -37 -243 0
-261 -38 -244 0
-262 -39 -245 0
-263 -40 -246 0
-264 -41 -247 0
-251 -53 -30 0
-252 -54 -31 0
-253 -55 -32 0
-254 -56 -33 0
-255 -57 -34 0
-256 -58 -35 0
-257 -59 -36 0
-258 -60 -37 0
-259 -61 -38 0
-260 -62 -39 0
-261 -63 -40 0
-262 -64 -41 0
-263 -65 -42 0
-264 -66 -43 0
-265 -67 -44 0
-266 -68 -45 0
-251 -53 -230 0
-252 -54 -231 0
-253 -55 -232 0
-254 -56 -233 0
-255 -57 -234 0
-256 -58 -235 0
-257 -59 -236 0
-258 -60 -237 0
-259 -61 -238 0
-260 -62 -239 0
-261 -63 -240 0
-262 -64 -241 0
-263 -65 -242 0
-264 -66 -243 0
-265 -67 -244 0
-266 -68 -245 0
-267 -69 -246 0
-268 -70 -247 0
-251 -228 -32 0
-252 -229 -33 0
-253 -230 -34 0
-254 -231 -35 0
-255 -232 -36 0
-256 -233 -37 0
-257 -234 -38 0
-258 -235 -39 0
-259 -236 -40 0
-260 -237 -41 0
-261 -238 -42 0
-262 -239 -43 0
-263 -240 -44 0
-264 -241 -45 0
-251 -228 -57 0
-252 -229 -58 0
-253 -230 -59 0
-254 -231 -60 0
-255 -232 -61 0
-256 -233 -62 0
-257 -234 -63 0
-258 -235 -64 0
-259 -236 -65 0
-260 -237 -66 0
-261 -238 -67 0
-262 -239 -68 0
-263 -240 -69 0
-264 -241 -70 0
-265 -242 -71 0
-266 -243 -72 0
-267 -244 -73 0
-268 -245 -74 0
-276 -103 -134 0
-277 -104 -135 0
-278 -105 -136 0
-279 -106 -137 0
-280 -107 -138 0
-281 -108 -139 0
-282 -109 -140 0
-283 -110 -141 0
-284 -111 -142 0
-285 -112 -143 0
-286 -113 -144 0
-287 -114 -145 0
-276 -103 -159 0
-277 -104 -160 0
-278 -105 -161 0
-279 -106 -162 0
-280 -107 -163 0
-281 -108 -164 0
-282 -109 -165 0
-283 -110 -166 0
-284 -111 -167 0
-285 -112 -168 0
-286 -113 -169 0
-287 -114 -170 0
-288 -115 -171 0
-289 -116 -172 0
-276 -103 -184 0
-277 -104 -185 0
-278 -105 -186 0
-279 -106 -187 0
-280 -107 -188 0
-281 -108 -189 0
-282 -109 -190 0
-283 -110 -191 0
-284 -111 -192 0
-285 -112 -193 0
-286 -113 -194 0
-287 -114 -195 0
-288 -115 -196 0
-289 -116 -197 0
-290 -117 -198 0
-291 -118 -199 0
-276 -128 -109 0
-277 -129 -110 0
-278 -130 -111 0
-279 -131 -112 0
-280 -132 -113 0
-281 -133 -114 0
-282 -134 -115 0
-283 -135 -116 0
-284 -136 -117 0
-285 -137 -118 0
-286 -138 -119 0
-287 -139 -120 0
-276 -128 -159 0
-277 -129 -160 0
-278 -130 -161 0
-279 -131 -162 0
-280 -132 -163 0
-281 -133 -164 0
-282 -134 -165 0
-283 -135 -166 0
-284 -136 -167 0
-285 -137 -168 0
-286 -138 -169 0
-287 -139 -170 0
-288 -140 -171 0
-289 -141 -172 0
-276 -128 -184 0
-277 -129 -185 0
-278 -130 -186 0
-279 -131 -187 0
-280 -132 -188 0
-281 -133 -189 0
-282 -134 -190 0
-283 -135 -191 0
-284 -136 -192 0
-285 -137 -193 0
-286 -138 -194 0
-287 -139 -195 0
-288 -140 -196 0
-289 -141 -197 0
-290 -142 -198 0
-291 -143 -199 0
-276 -153 -107 0
-277 -154 -108 0
-278 -155 -109 0
-279 -156 -110 0
-280 -157 -111 0
-281 -158 -112 0
-282 -159 -113 0
-283 -160 -114 0
-284 -161 -115 0
-285 -162 -116 0
-286 -163 -117 0
-287 -164 -118 0
-288 -165 -119 0
-289 -166 -120 0
-276 -153 -132 0
-277 -154 -133 0
-278 -155 -134 0
-279 -156 -135 0
-280 -157 -136 0
-281 -158 -137 0
-282 -159 -138 0
-283 -160 -139 0
-284 -161 -140 0
-285 -162 -141 0
-286 -163 -142 0
-287 -164 -143 0
-288 -165 -144 0
-289 -166 -145 0
-276 -153 -182 0
-277 -154 -183 0
-278 -155 -184 0
-279 -156 -185 0
-280 -157 -186 0
-281 -158 -187 0
-282 -159 -188 0
-283 -160 -189 0
-284 -161 -190 0
-285 -162 -191 0
-286 -163 -192 0
-287 -164 -193 0
-288 -165 -194 0
-289 -166 -195 0
-290 -167 -196 0
-291 -168 -197 0
-292 -169 -198 0
-293 -170 -199 0
-276 -178 -105 0
-277 -179 -106 0
-278 -180 -107 0
-279 -181 -108 0
-280 -182 -109 0
-281 -183 -110 0
-282 -184 -111 0
-283 -185 -112 0
-284 -186 -113 0
-285 -187 -114 0
-286 -188 -115 0
-287 -189 -116 0
-288 -190 -117 0
-289 -191 -118 0
-290 -192 -119 0
-291 -193 -120 0
-276 -178 -130 0
-277 -179 -131 0
-278 -180 -132 0
-279 -181 -133 0
-280 -182 -134 0
-281 -183 -135 0
-282 -184 -136 0
-283 -185 -137 0
-284 -186 -138 0
-285 -187 -139 0
-286 -188 -140 0
-287 -189 -141 0
-288 -190 -142 0
-289 -191 -143 0
-290 -192 -144 0
-291 -193 -145 0
-276 -178 -155 0
-277 -179 -156 0
-278 -180 -157 0
-279 -181 -158 0
-280 -182 -159 0
-281 -183 -160 0
-282 -184 -161 0
-283 -185 -162 0
-284 -186 -163 0
-285 -187 -164 0
-286 -188 -165 0
-287 -189 -166 0
-288 -190 -167 0
-289 -191 -168 0
-290 -192 -169 0
-291 -193 -170 0
-292 -194 -171 0
-293 -195 -172 0
-51 301 0
-176 301 0
-201 301 0
-251 301 0
-276 301 0
-76 301 0
-151 301 0
-226 301 0
-1 301 0
-26 301 0
-101 301 0
-126 301 0
-301 51 176 201 251 276 76 151 226 1 26 101 126 0
-52 302 0
-51 302 0
-177 302 0
-176 302 0
-202 302 0
-201 302 0
-252 302 0
-251 302 0
-277 302 0
-276 302 0
-77 302 0
-76 302 0
-152 302 0
-151 302 0
-227 302 0
-226 302 0
-2 302 0
-1 302 0
-27 302 0
-26 302 0
-102 302 0
-101 302 0
-127 302 0
-126 302 0
-302 52 51 177 176 202 201 252 251 277 276 77 76 152 151 227 226 2 1 27 26 102 101 127 126 0
-53 303 0
-52 303 0
-178 303 0
-177 303 0
-203 303 0
-202 303 0
-253 303 0
-252 303 0
-278 303 0
-277 303 0
-78 303 0
-77 303 0
-76 303 0
-153 303 0
-152 303 0
-151 303 0
-228 303 0
-227 303 0
-226 303 0
-3 303 0
-2 303 0
-1 303 0
-28 303 0
-27 303 0
-26 303 0
-103 303 0
-102 303 0
-101 303 0
-128 303 0
-127 303 0
-126 303 0
-303 53 52 178 177 203 202 253 252 278 277 78 77 76 153 152 151 228 227 226 3 2 1 28 27 26 103 102 101 128 127 126 0
-54 304 0
-53 304 0
-179 304 0
-178 304 0
-204 304 0
-203 304 0
-254 304 0
-253 304 0
-279 304 0
-278 304 0
-79 304 0
-78 304 0
-77 304 0
-76 304 0
-154 304 0
-153 304 0
-152 304 0
-151 304 0
-229 304 0
-228 304 0
-227 304 0
-226 304 0
-4 304 0
-3 304 0
-2 304 0
-1 304 0
-29 304 0
-28 304 0
-27 304 0
-26 304 0
-104 304 0
-103 304 0
-102 304 0
-101 304 0
-129 304 0
-128 304 0
-127 304 0
-126 304 0
-304 54 53 179 178 204 203 254 253 279 278 79 78 77 76 154 153 152 151 229 228 227 226 4 3 2 1 29 28 27 26 104 103 102 101 129 128 127 126 0
-55 305 0
-54 305 0
-180 305 0
-179 305 0
-205 305 0
-204 305 0
-255 305 0
-254 305 0
-280 305 0
-279 305 0
-80 305 0
-79 305 0
-78 305 0
-77 305 0
-155 305 0
-154 305 0
-153 305 0
-152 305 0
-230 305 0
-229 305 0
-228 305 0
-227 305 0
-5 305 0
-4 305 0
-3 305 0
-2 305 0
-1 305 0
-30 305 0
-29 305 0
-28 305 0
-27 305 0
-26 305 0
-105 305 0
-104 305 0
-103 305 0
-102 305 0
-101 305 0
-130 305 0
-129 305 0
-128 305 0
-127 305 0
-126 305 0
-305 55 54 180 179 205 204 255 254 280 279 80 79 78 77 155 154 153 152 230 229 228 227 5 4 3 2 1 30 29 28 27 26 105 104 103 102 101 130 129 128 127 126 0
-56 306 0
-55 306 0
-181 306 0
-180 306 0
-206 306 0
-205 306 0
-256 306 0
-255 306 0
-281 306 0
-280 306 0
-81 306 0
-80 306 0
-79 306 0
-78 306 0
-156 306 0
-155 306 0
-154 306 0
-153 306 0
-231 306 0
-230 306 0
-229 306 0
-228 306 0
-6 306 0
-5 306 0
-4 306 0
-3 306 0
-2 306 0
-1 306 0
-31 306 0
-30 306 0
-29 306 0
-28 306 0
-27 306 0
-26 306 0
-106 306 0
-105 306 0
-104 306 0
-103 306 0
-102 306 0
-101 306 0
-131 306 0
-130 306 0
-129 306 0
-128 306 0
-127 306 0
-126 306 0
-306 56 55 181 180 206 205 256 255 281 280 81 80 79 78 156 155 154 153 231 230 229 228 6 5 4 3 2 1 31 30 29 28 27 26 106 105 104 103 102 101 131 130 129 128 127 126 0
-57 307 0
-56 307 0
-182 307 0
-181 307 0
-207 307 0
-206 307 0
-257 307 0
-256 307 0
-282 307 0
-281 307 0
-82 307 0
-81 307 0
-80 307 0
-79 307 0
-157 307 0
-156 307 0
-155 307 0
-154 307 0
-232 307 0
-231 307 0
-230 307 0
-229 307 0
-7 307 0
-6 307 0
-5 307 0
-4 307 0
-3 307 0
-2 307 0
-32 307 0
-31 307 0
-30 307 0
-29 307 0
-28 307 0
-27 307 0
-107 307 0
-106 307 0
-105 307 0
-104 307 0
-103 307 0
-102 307 0
-132 307 0
-131 307 0
-130 307 0
-129 307 0
-128 307 0
-127 307 0
-307 57 56 182 181 207 206 257 256 282 281 82 81 80 79 157 156 155 154 232 231 230 229 7 6 5 4 3 2 32 31 30 29 28 27 107 106 105 104 103 102 132 131 130 129 128 127 0
-58 308 0
-57 308 0
-183 308 0
-182 308 0
-208 308 0
-207 308 0
-258 308 0
-257 308 0
-283 308 0
-282 308 0
-83 308 0
-82 308 0
-81 308 0
-80 308 0
-158 308 0
-157 308 0
-156 308 0
-155 308 0
-233 308 0
-232 308 0
-231 308 0
-230 308 0
-8 308 0
-7 308 0
-6 308 0
-5 308 0
-4 308 0
-3 308 0
-33 308 0
-32 308 0
-31 308 0
-30 308 0
-29 308 0
-28 308 0
-108 308 0
-107 308 0
-106 308 0
-105 308 0
-104 308 0
-103 308 0
-133 308 0
-132 308 0
-131 308 0
-130 308 0
-129 308 0
-128 308 0
-308 58 57 183 182 208 207 258 257 283 282 83 82 81 80 158 157 156 155 233 232 231 230 8 7 6 5 4 3 33 32 31 30 29 28 108 107 106 105 104 103 133 132 131 130 129 128 0
-59 309 0
-58 309 0
-184 309 0
-183 309 0
-209 309 0
-208 309 0
-259 309 0
-258 309 0
-284 309 0
-283 309 0
-84 309 0
-83 309 0
-82 309 0
-81 309 0
-159 309 0
-158 309 0
-157 309 0
-156 309 0
-234 309 0
-233 309 0
-232 309 0
-231 309 0
-9 309 0
-8 309 0
-7 309 0
-6 309 0
-5 309 0
-4 309 0
-34 309 0
-33 309 0
-32 309 0
-31 309 0
-30 309 0
-29 309 0
-109 309 0
-108 309 0
-107 309 0
-106 309 0
-105 309 0
-104 309 0
-134 309 0
-133 309 0
-132 309 0
-131 309 0
-130 309 0
-129 309 0
-309 59 58 184 183 209 208 259 258 284 283 84 83 82 81 159 158 157 156 234 233 232 231 9 8 7 6 5 4 34 33 32 31 30 29 109 108 107 106 105 104 134 133 132 131 130 129 0
-60 310 0
-59 310 0
-185 310 0
-184 310 0
-210 310 0
-209 310 0
-260 310 0
-259 310 0
-285 310 0
-284 310 0
-85 310 0
-84 310 0
-83 310 0
-82 310 0
-160 310 0
-159 310 0
-158 310 0
-157 310 0
-235 310 0
-234 310 0
-233 310 0
-232 310 0
-10 310 0
-9 310 0
-8 310 0
-7 310 0
-6 310 0
-5 310 0
-35 310 0
-34 310 0
-33 310 0
-32 310 0
-31 310 0
-30 310 0
-110 310 0
-109 310 0
-108 310 0
-107 310 0
-106 310 0
-105 310 0
-135 310 0
-134 310 0
-133 310 0
-132 310 0
-131 310 0
-130 310 0
-310 60 59 185 184 210 209 260 259 285 284 85 84 83 82 160 159 158 157 235 234 233 232 10 9 8 7 6 5 35 34 33 32 31 30 110 109 108 107 106 105 135 134 133 132 131 130 0
-61 311 0
-60 311 0
-186 311 0
-185 311 0
-211 311 0
-210 311 0
-261 311 0
-260 311 0
-286 311 0
-285 311 0
-86 311 0
-85 311 0
-84 311 0
-83 311 0
-161 311 0
-160 311 0
-159 311 0
-158 311 0
-236 311 0
-235 311 0
-234 311 0
-233 311 0
-11 311 0
-10 311 0
-9 311 0
-8 311 0
-7 311 0
-6 311 0
-36 311 0
-35 311 0
-34 311 0
-33 311 0
-32 311 0
-31 311 0
-111 311 0
-110 311 0
-109 311 0
-108 311 0
-107 311 0
-106 311 0
-136 311 0
-135 311 0
-134 311 0
-133 311 0
-132 311 0
-131 311 0
-311 61 60 186 185 211 210 261 260 286 285 86 85 84 83 161 160 159 158 236 235 234 233 11 10 9 8 7 6 36 35 34 33 32 31 111 110 109 108 107 106 136 135 134 133 132 131 0
-62 312 0
-61 312 0
-187 312 0
-186 312 0
-212 312 0
-211 312 0
-262 312 0
-261 312 0
-287 312 0
-286 312 0
-87 312 0
-86 312 0
-85 312 0
-84 312 0
-162 312 0
-161 312 0
-160 312 0
-159 312 0
-237 312 0
-236 312 0
-235 312 0
-234 312 0
-12 312 0
-11 312 0
-10 312 0
-9 312 0
-8 312 0
-7 312 0
-37 312 0
-36 312 0
-35 312 0
-34 312 0
-33 312 0
-32 312 0
-112 312 0
-111 312 0
-110 312 0
-109 312 0
-108 312 0
-107 312 0
-137 312 0
-136 312 0
-135 312 0
-134 312 0
-133 312 0
-132 312 0
-312 62 61 187 186 212 211 262 261 287 286 87 86 85 84 162 161 160 159 237 236 235 234 12 11 10 9 8 7 37 36 35 34 33 32 112 111 110 109 108 107 137 136 135 134 133 132 0
-63 313 0
-62 313 0
-188 313 0
-187 313 0
-213 313 0
-212 313 0
-263 313 0
-262 313 0
-288 313 0
-287 313 0
-88 313 0
-87 313 0
-86 313 0
-85 313 0
-163 313 0
-162 313 0
-161 313 0
-160 313 0
-238 313 0
-237 313 0
-236 313 0
-235 313 0
-13 313 0
-12 313 0
-11 313 0
-10 313 0
-9 313 0
-8 313 0
-38 313 0
-37 313 0
-36 313 0
-35 313 0
-34 313 0
-33 313 0
-113 313 0
-112 313 0
-111 313 0
-110 313 0
-109 313 0
-108 313 0
-138 313 0
-137 313 0
-136 313 0
-135 313 0
-134 313 0
-133 313 0
-313 63 62 188 187 213 212 263 262 288 287 88 87 86 85 163 162 161 160 238 237 236 235 13 12 11 10 9 8 38 37 36 35 34 33 113 112 111 110 109 108 138 137 136 135 134 133 0
-64 314 0
-63 314 0
-189 314 0
-188 314 0
-214 314 0
-213 314 0
-264 314 0
-263 314 0
-289 314 0
-288 314 0
-89 314 0
-88 314 0
-87 314 0
-86 314 0
-164 314 0
-163 314 0
-162 314 0
-161 314 0
-239 314 0
-238 314 0
-237 314 0
-236 314 0
-14 314 0
-13 314 0
-12 314 0
-11 314 0
-10 314 0
-9 314 0
-39 314 0
-38 314 0
-37 314 0
-36 314 0
-35 314 0
-34 314 0
-114 314 0
-113 314 0
-112 314 0
-111 314 0
-110 314 0
-109 314 0
-139 314 0
-138 314 0
-137 314 0
-136 314 0
-135 314 0
-134 314 0
-314 64 63 189 188 214 213 264 263 289 288 89 88 87 86 164 163 162 161 239 238 237 236 14 13 12 11 10 9 39 38 37 36 35 34 114 113 112 111 110 109 139 138 137 136 135 134 0
-65 315 0
-64 315 0
-190 315 0
-189 315 0
-215 315 0
-214 315 0
-265 315 0
-264 315 0
-290 315 0
-289 315 0
-90 315 0
-89 315 0
-88 315 0
-87 315 0
-165 315 0
-164 315 0
-163 315 0
-162 315 0
-240 315 0
-239 315 0
-238 315 0
-237 315 0
-15 315 0
-14 315 0
-13 315 0
-12 315 0
-11 315 0
-10 315 0
-40 315 0
-39 315 0
-38 315 0
-37 315 0
-36 315 0
-35 315 0
-115 315 0
-114 315 0
-113 315 0
-112 315 0
-111 315 0
-110 315 0
-140 315 0
-139 315 0
-138 315 0
-137 315 0
-136 315 0
-135 315 0
-315 65 64 190 189 215 214 265 264 290 289 90 89 88 87 165 164 163 162 240 239 238 237 15 14 13 12 11 10 40 39 38 37 36 35 115 114 113 112 111 110 140 139 138 137 136 135 0
-66 316 0
-65 316 0
-191 316 0
-190 316 0
-216 316 0
-215 316 0
-266 316 0
-265 316 0
-291 316 0
-290 316 0
-91 316 0
-90 316 0
-89 316 0
-88 316 0
-166 316 0
-165 316 0
-164 316 0
-163 316 0
-241 316 0
-240 316 0
-239 316 0
-238 316 0
-16 316 0
-15 316 0
-14 316 0
-13 316 0
-12 316 0
-11 316 0
-41 316 0
-40 316 0
-39 316 0
-38 316 0
-37 316 0
-36 316 0
-116 316 0
-115 316 0
-114 316 0
-113 316 0
-112 316 0
-111 316 0
-141 316 0
-140 316 0
-139 316 0
-138 316 0
-137 316 0
-136 316 0
-316 66 65 191 190 216 215 266 265 291 290 91 90 89 88 166 165 164 163 241 240 239 238 16 15 14 13 12 11 41 40 39 38 37 36 116 115 114 113 112 111 141 140 139 138 137 136 0
-67 317 0
-66 317 0
-192 317 0
-191 317 0
-217 317 0
-216 317 0
-267 317 0
-266 317 0
-292 317 0
-291 317 0
-92 317 0
-91 317 0
-90 317 0
-89 317 0
-167 317 0
-166 317 0
-165 317 0
-164 317 0
-242 317 0
-241 317 0
-240 317 0
-239 317 0
-17 317 0
-16 317 0
-15 317 0
-14 317 0
-13 317 0
-12 317 0
-42 317 0
-41 317 0
-40 317 0
-39 317 0
-38 317 0
-37 317 0
-117 317 0
-116 317 0
-115 317 0
-114 317 0
-113 317 0
-112 317 0
-142 317 0
-141 317 0
-140 317 0
-139 317 0
-138 317 0
-137 317 0
-317 67 66 192 191 217 216 267 266 292 291 92 91 90 89 167 166 165 164 242 241 240 239 17 16 15 14 13 12 42 41 40 39 38 37 117 116 115 114 113 112 142 141 140 139 138 137 0
-68 318 0
-67 318 0
-193 318 0
-192 318 0
-218 318 0
-217 318 0
-268 318 0
-267 318 0
-293 318 0
-292 318 0
-93 318 0
-92 318 0
-91 318 0
-90 318 0
-168 318 0
-167 318 0
-166 318 0
-165 318 0
-243 318 0
-242 318 0
-241 318 0
-240 318 0
-18 318 0
-17 318 0
-16 318 0
-15 318 0
-14 318 0
-13 318 0
-43 318 0
-42 318 0
-41 318 0
-40 318 0
-39 318 0
-38 318 0
-118 318 0
-117 318 0
-116 318 0
-115 318 0
-114 318 0
-113 318 0
-143 318 0
-142 318 0
-141 318 0
-140 318 0
-139 318 0
-138 318 0
-318 68 67 193 192 218 217 268 267 293 292 93 92 91 90 168 167 166 165 243 242 241 240 18 17 16 15 14 13 43 42 41 40 39 38 118 117 116 115 114 113 143 142 141 140 139 138 0
-69 319 0
-68 319 0
-194 319 0
-193 319 0
-219 319 0
-218 319 0
-269 319 0
-268 319 0
-294 319 0
-293 319 0
-94 319 0
-93 319 0
-92 319 0
-91 319 0
-169 319 0
-168 319 0
-167 319 0
-166 319 0
-244 319 0
-243 319 0
-242 319 0
-241 319 0
-19 319 0
-18 319 0
-17 319 0
-16 319 0
-15 319 0
-14 319 0
-44 319 0
-43 319 0
-42 319 0
-41 319 0
-40 319 0
-39 319 0
-119 319 0
-118 319 0
-117 319 0
-116 319 0
-115 319 0
-114 319 0
-144 319 0
-143 319 0
-142 319 0
-141 319 0
-140 319 0
-139 319 0
-319 69 68 194 193 219 218 269 268 294 293 94 93 92 91 169 168 167 166 244 243 242 241 19 18 17 16 15 14 44 43 42 41 40 39 119 118 117 116 115 114 144 143 142 141 140 139 0
-70 320 0
-69 320 0
-195 320 0
-194 320 0
-220 320 0
-219 320 0
-270 320 0
-269 320 0
-295 320 0
-294 320 0
-95 320 0
-94 320 0
-93 320 0
-92 320 0
-170 320 0
-169 320 0
-168 320 0
-167 320 0
-245 320 0
-244 320 0
-243 320 0
-242 320 0
-20 320 0
-19 320 0
-18 320 0
-17 320 0
-16 320 0
-15 320 0
-45 320 0
-44 320 0
-43 320 0
-42 320 0
-41 320 0
-40 320 0
-120 320 0
-119 320 0
-118 320 0
-117 320 0
-116 320 0
-115 320 0
-145 320 0
-144 320 0
-143 320 0
-142 320 0
-141 320 0
-140 320 0
-320 70 69 195 194 220 219 270 269 295 294 95 94 93 92 170 169 168 167 245 244 243 242 20 19 18 17 16 15 45 44 43 42 41 40 120 119 118 117 116 115 145 144 143 142 141 140 0
-71 321 0
-70 321 0
-196 321 0
-195 321 0
-221 321 0
-220 321 0
-271 321 0
-270 321 0
-296 321 0
-295 321 0
-96 321 0
-95 321 0
-94 321 0
-93 321 0
-171 321 0
-170 321 0
-169 321 0
-168 321 0
-246 321 0
-245 321 0
-244 321 0
-243 321 0
-21 321 0
-20 321 0
-19 321 0
-18 321 0
-17 321 0
-16 321 0
-46 321 0
-45 321 0
-44 321 0
-43 321 0
-42 321 0
-41 321 0
-121 321 0
-120 321 0
-119 321 0
-118 321 0
-117 321 0
-116 321 0
-146 321 0
-145 321 0
-144 321 0
-143 321 0
-142 321 0
-141 321 0
-321 71 70 196 195 221 220 271 270 296 295 96 95 94 93 171 170 169 168 246 245 244 243 21 20 19 18 17 16 46 45 44 43 42 41 121 120 119 118 117 116 146 145 144 143 142 141 0
-72 322 0
-71 322 0
-197 322 0
-196 322 0
-222 322 0
-221 322 0
-272 322 0
-271 322 0
-297 322 0
-296 322 0
-97 322 0
-96 322 0
-95 322 0
-94 322 0
-172 322 0
-171 322 0
-170 322 0
-169 322 0
-247 322 0
-246 322 0
-245 322 0
-244 322 0
-22 322 0
-21 322 0
-20 322 0
-19 322 0
-18 322 0
-17 322 0
-47 322 0
-46 322 0
-45 322 0
-44 322 0
-43 322 0
-42 322 0
-122 322 0
-121 322 0
-120 322 0
-119 322 0
-118 322 0
-117 322 0
-147 322 0
-146 322 0
-145 322 0
-144 322 0
-143 322 0
-142 322 0
-322 72 71 197 196 222 221 272 271 297 296 97 96 95 94 172 171 170 169 247 246 245 244 22 21 20 19 18 17 47 46 45 44 43 42 122 121 120 119 118 117 147 146 145 144 143 142 0
-73 323 0
-72 323 0
-198 323 0
-197 323 0
-223 323 0
-222 323 0
-273 323 0
-272 323 0
-298 323 0
-297 323 0
-98 323 0
-97 323 0
-96 323 0
-95 323 0
-173 323 0
-172 323 0
-171 323 0
-170 323 0
-248 323 0
-247 323 0
-246 323 0
-245 323 0
-23 323 0
-22 323 0
-21 323 0
-20 323 0
-19 323 0
-18 323 0
-48 323 0
-47 323 0
-46 323 0
-45 323 0
-44 323 0
-43 323 0
-123 323 0
-122 323 0
-121 323 0
-120 323 0
-119 323 0
-118 323 0
-148 323 0
-147 323 0
-146 323 0
-145 323 0
-144 323 0
-143 323 0
-323 73 72 198 197 223 222 273 272 298 297 98 97 96 95 173 172 171 170 248 247 246 245 23 22 21 20 19 18 48 47 46 45 44 43 123 122 121 120 119 118 148 147 146 145 144 143 0
-74 324 0
-73 324 0
-199 324 0
-198 324 0
-224 324 0
-223 324 0
-274 324 0
-273 324 0
-299 324 0
-298 324 0
-99 324 0
-98 324 0
-97 324 0
-96 324 0
-174 324 0
-173 324 0
-172 324 0
-171 324 0
-249 324 0
-248 324 0
-247 324 0
-246 324 0
-24 324 0
-23 324 0
-22 324 0
-21 324 0
-20 324 0
-19 324 0
-49 324 0
-48 324 0
-47 324 0
-46 324 0
-45 324 0
-44 324 0
-124 324 0
-123 324 0
-122 324 0
-121 324 0
-120 324 0
-119 324 0
-149 324 0
-148 324 0
-147 324 0
-146 324 0
-145 324 0
-144 324 0
-324 74 73 199 198 224 223 274 273 299 298 99 98 97 96 174 173 172 171 249 248 247 246 24 23 22 21 20 19 49 48 47 46 45 44 124 123 122 121 120 119 149 148 147 146 145 144 0
-75 325 0
-74 325 0
-200 325 0
-199 325 0
-225 325 0
-224 325 0
-275 325 0
-274 325 0
-300 325 0
-299 325 0
-100 325 0
-99 325 0
-98 325 0
-97 325 0
-175 325 0
-174 325 0
-173 325 0
-172 325 0
-250 325 0
-249 325 0
-248 325 0
-247 325 0
-25 325 0
-24 325 0
-23 325 0
-22 325 0
-21 325 0
-20 325 0
-50 325 0
-49 325 0
-48 325 0
-47 325 0
-46 325 0
-45 325 0
-125 325 0
-124 325 0
-123 325 0
-122 325 0
-121 325 0
-120 325 0
-150 325 0
-149 325 0
-148 325 0
-147 325 0
-146 325 0
-145 325 0
-325 75 74 200 199 225 224 275 274 300 299 100 99 98 97 175 174 173 172 250 249 248 247 25 24 23 22 21 20 50 49 48 47 46 45 125 124 123 122 121 120 150 149 148 147 146 145 0
301 302 303 0
301 302 304 0
301 302 305 0
301 302 306 0
301 302 307 0
301 302 308 0
301 302 309 0
301 302 310 0
301 302 311 0
301 302 312 0
301 302 313 0
301 302 314 0
301 302 315 0
301 302 316 0
301 302 317 0
301 302 318 0
301 302 319 0
301 302 320 0
301 302 321 0
301 302 322 0
301 302 323 0
301 302 324 0
301 302 325 0
301 303 304 0
301 303 305 0
301 303 306 0
301 303 307 0
301 303 308 0
301 303 309 0
301 303 310 0
301 303 311 0
301 303 312 0
301 303 313 0
301 303 314 0
301 303 315 0
301 303 316 0
301 303 317 0
301 303 318 0
301 303 319 0
301 303 320 0
301 303 321 0
301 303 322 0
301 303 323 0
301 303 324 0
301 303 325 0
301 304 305 0
301 304 306 0
301 304 307 0
301 304 308 0
301 304 309 0
301 304 310 0
301 304 311 0
301 304 312 0
301 304 313 0
301 304 314 0
301 304 315 0
301 304 316 0
301 304 317 0
301 304 318 0
301 304 319 0
301 304 320 0
301 304 321 0
301 304 322 0
301 304 323 0
301 304 324 0
301 304 325 0
301 305 306 0
301 305 307 0
301 305 308 0
301 305 309 0
301 305 310 0
301 305 311 0
301 305 312 0
301 305 313 0
301 305 314 0
301 305 315 0
301 305 316 0
301 305 317 0
301 305 318 0
301 305 319 0
301 305 320 0
301 305 321 0
301 305 322 0
301 305 323 0
301 305 324 0
301 305 325 0
301 306 307 0
301 306 308 0
301 306 309 0
301 306 310 0
301 306 311 0
301 306 312 0
301 306 313 0
301 306 314 0
301 306 315 0
301 306 316 0
301 306 317 0
301 306 318 0
301 306 319 0
301 306 320 0
301 306 321 0
301 306 322 0
301 306 323 0
301 306 324 0
301 306 325 0
301 307 308 0
301 307 309 0
301 307 310 0
301 307 311 0
301 307 312 0
301 307 313 0
301 307 314 0
301 307 315 0
301 307 316 0
301 307 317 0
301 307 318 0
301 307 319 0
301 307 320 0
301 307 321 0
301 307 322 0
301 307 323 0
301 307 324 0
301 307 325 0
301 308 309 0
301 308 310 0
301 308 311 0
301 308 312 0
301 308 313 0
301 308 314 0
301 308 315 0
301 308 316 0
301 308 317 0
301 308 318 0
301 308 319 0
301 308 320 0
301 308 321 0
301 308 322 0
301 308 323 0
301 308 324 0
301 308 325 0
301 309 310 0
301 309 311 0
301 309 312 0
301 309 313 0
301 309 314 0
301 309 315 0
301 309 316 0
301 309 317 0
301 309 318 0
301 309 319 0
301 309 320 0
301 309 321 0
301 309 322 0
301 309 323 0
301 309 324 0
301 309 325 0
301 310 311 0
301 310 312 0
301 310 313 0
301 310 314 0
301 310 315 0
301 310 316 0
301 310 317 0
301 310 318 0
301 310 319 0
301 310 320 0
301 310 321 0
301 310 322 0
301 310 323 0
301 310 324 0
301 310 325 0
301 311 312 0
301 311 313 0
301 311 314 0
301 311 315 0
301 311 316 0
301 311 317 0
301 311 318 0
301 311 319 0
301 311 320 0
301 311 321 0
301 311 322 0
301 311 323 0
301 311 324 0
301 311 325 0
301 312 313 0
301 312 314 0
301 312 315 0
301 312 316 0
301 312 317 0
301 312 318 0
301 312 319 0
301 312 320 0
301 312 321 0
301 312 322 0
301 312 323 0
301 312 324 0
301 312 325 0
301 313 314 0
301 313 315 0
301 313 316 0
301 313 317 0
301 313 318 0
301 313 319 0
301 313 320 0
301 313 321 0
301 313 322 0
301 313 323 0
301 313 324 0
301 313 325 0
301 314 315 0
301 314 316 0
301 314 317 0
301 314 318 0
301 314 319 0
301 314 320 0
301 314 321 0
301 314 322 0
301 314 323 0
301 314 324 0
301 314 325 0
301 315 316 0
301 315 317 0
301 315 318 0
301 315 319 0
301 315 320 0
301 315 321 0
301 315 322 0
301 315 323 0
301 315 324 0
301 315 325 0
301 316 317 0
301 316 318 0
301 316 319 0
301 316 320 0
301 316 321 0
301 316 322 0
301 316 323 0
301 316 324 0
301 316 325 0
301 317 318 0
301 317 319 0
301 317 320 0
301 317 321 0
301 317 322 0
301 317 323 0
301 317 324 0
301 317 325 0
301 318 319 0
301 318 320 0
301 318 321 0
301 318 322 0
301 318 323 0
301 318 324 0
301 318 325 0
301 319 320 0
301 319 321 0
301 319 322 0
301 319 323 0
301 319 324 0
301 319 325 0
301 320 321 0
301 320 322 0
301 320 323 0
301 320 324 0
301 320 325 0
301 321 322 0
301 321 323 0
301 321 324 0
301 321 325 0
301 322 323 0
301 322 324 0
301 322 325 0
301 323 324 0
301 323 325 0
301 324 325 0
302 303 304 0
302 303 305 0
302 303 306 0
302 303 307 0
302 303 308 0
302 303 309 0
302 303 310 0
302 303 311 0
302 303 312 0
302 303 313 0
302 303 314 0
302 303 315 0
302 303 316 0
302 303 317 0
302 303 318 0
302 303 319 0
302 303 320 0
302 303 321 0
302 303 322 0
302 303 323 0
302 303 324 0
302 303 325 0
302 304 305 0
302 304 306 0
302 304 307 0
302 304 308 0
302 304 309 0
302 304 310 0
302 304 311 0
302 304 312 0
302 304 313 0
302 304 314 0
302 304 315 0
302 304 316 0
302 304 317 0
302 304 318 0
302 304 319 0
302 304 320 0
302 304 321 0
302 304 322 0
302 304 323 0
302 304 324 0
302 304 325 0
302 305 306 0
302 305 307 0
302 305 308 0
302 305 309 0
302 305 310 0
302 305 311 0
302 305 312 0
302 305 313 0
302 305 314 0
302 305 315 0
302 305 316 0
302 305 317 0
302 305 318 0
302 305 319 0
302 305 320 0
302 305 321 0
302 305 322 0
302 305 323 0
302 305 324 0
302 305 325 0
302 306 307 0
302 306 308 0
302 306 309 0
302 306 310 0
302 306 311 0
302 306 312 0
302 306 313 0
302 306 314 0
302 306 315 0
302 306 316 0
302 306 317 0
302 306 318 0
302 306 319 0
302 306 320 0
302 306 321 0
302 306 322 0
302 306 323 0
302 306 324 0
302 306 325 0
302 307 308 0
302 307 309 0
302 307 310 0
302 307 311 0
302 307 312 0
302 307 313 0
302 307 314 0
302 307 315 0
302 307 316 0
302 307 317 0
302 307 318 0
302 307 319 0
302 307 320 0
302 307 321 0
302 307 322 0
302 307 323 0
302 307 324 0
302 307 325 0
302 308 309 0
302 308 310 0
302 308 311 0
302 308 312 0
302 308 313 0
302 308 314 0
302 308 315 0
302 308 316 0
302 308 317 0
302 308 318 0
302 308 319 0
302 308 320 0
302 308 321 0
302 308 322 0
302 308 323 0
302 308 324 0
302 308 325 0
302 309 310 0
302 309 311 0
302 309 312 0
302 309 313 0
302 309 314 0
302 309 315 0
302 309 316 0
302 309 317 0
302 309 318 0
302 309 319 0
302 309 320 0
302 309 321 0
302 309 322 0
302 309 323 0
302 309 324 0
302 309 325 0
302 310 311 0
302 310 312 0
302 310 313 0
302 310 314 0
302 310 315 0
302 310 316 0
302 310 317 0
302 310 318 0
302 310 319 0
302 310 320 0
302 310 321 0
302 310 322 0
302 310 323 0
302 310 324 0
302 310 325 0
302 311 312 0
302 311 313 0
302 311 314 0
302 311 315 0
302 311 316 0
302 311 317 0
302 311 318 0
302 311 319 0
302 311 320 0
302 311 321 0
302 311 322 0
302 311 323 0
302 311 324 0
302 311 325 0
302 312 313 0
302 312 314 0
302 312 315 0
302 312 316 0
302 312 317 0
302 312 318 0
302 312 319 0
302 312 320 0
302 312 321 0
302 312 322 0
302 312 323 0
302 312 324 0
302 312 325 0
302 313 314 0
302 313 315 0
302 313 316 0
302 313 317 0
302 313 318 0
302 313 319 0
302 313 320 0
302 313 321 0
302 313 322 0
302 313 323 0
302 313 324 0
302 313 325 0
302 314 315 0
302 314 316 0
302 314 317 0
302 314 318 0
302 314 319 0
302 314 320 0
302 314 321 0
302 314 322 0
302 314 323 0
302 314 324 0
302 314 325 0
302 315 316 0
302 315 317 0
302 315 318 0
302 315 319 0
302 315 320 0
302 315 321 0
302 315 322 0
302 315 323 0
302 315 324 0
302 315 325 0
302 316 317 0
302 316 318 0
302 316 319 0
302 316 320 0
302 316 321 0
302 316 322 0
302 316 323 0
302 316 324 0
302 316 325 0
302 317 318 0
302 317 319 0
302 317 320 0
302 317 321 0
302 317 322 0
302 317 323 0
302 317 324 0
302 317 325 0
302 318 319 0
302 318 320 0
302 318 321 0
302 318 322 0
302 318 323 0
302 318 324 0
302 318 325 0
302 319 320 0
302 319 321 0
302 319 322 0
302 319 323 0
302 319 324 0
302 319 325 0
302 320 321 0
302 320 322 0
302 320 323 0
302 320 324 0
302 320 325 0
302 321 322 0
302 321 323 0
302 321 324 0
302 321 325 0
302 322 323 0
302 322 324 0
302 322 325 0
302 323 324 0
302 323 325 0
302 324 325 0
303 304 305 0
303 304 306 0
303 304 307 0
303 304 308 0
303 304 309 0
303 304 310 0
303 304 311 0
303 304 312 0
303 304 313 0
303 304 314 0
303 304 315 0
303 304 316 0
303 304 317 0
303 304 318 0
303 304 319 0
303 304 320 0
303 304 321 0
303 304 322 0
303 304 323 0
303 304 324 0
303 304 325 0
303 305 306 0
303 305 307 0
303 305 308 0
303 305 309 0
303 305 310 0
303 305 311 0
303 305 312 0
303 305 313 0
303 305 314 0
303 305 315 0
303 305 316 0
303 305 317 0
303 305 318 0
303 305 319 0
303 305 320 0
303 305 321 0
303 305 322 0
303 305 323 0
303 305 324 0
303 305 325 0
303 306 307 0
303 306 308 0
303 306 309 0
303 306 310 0
303 306 311 0
303 306 312 0
303 306 313 0
303 306 314 0
303 306 315 0
303 306 316 0
303 306 317 0
303 306 318 0
303 306 319 0
303 306 320 0
303 306 321 0
303 306 322 0
303 306 323 0
303 306 324 0
303 306 325 0
303 307 308 0
303 307 309 0
303 307 310 0
303 307 311 0
303 307 312 0
303 307 313 0
303 307 314 0
303 307 315 0
303 307 316 0
303 307 317 0
303 307 318 0
303 307 319 0
303 307 320 0
303 307 321 0
303 307 322 0
303 307 323 0
303 307 324 0
303 307 325 0
303 308 309 0
303 308 310 0
303 308 311 0
303 308 312 0
303 308 313 0
303 308 314 0
303 308 315 0
303 308 316 0
303 308 317 0
303 308 318 0
303 308 319 0
303 308 320 0
303 308 321 0
303 308 322 0
303 308 323 0
303 308 324 0
303 308 325 0
303 309 310 0
303 309 311 0
303 309 312 0
303 309 313 0
303 309 314 0
303 309 315 0
303 309 316 0
303 309 317 0
303 309 318 0
303 309 319 0
303 309 320 0
303 309 321 0
303 309 322 0
303 309 323 0
303 309 324 0
303 309 325 0
303 310 311 0
303 310 312 0
303 310 313 0
303 310 314 0
303 310 315 0
303 310 316 0
303 310 317 0
303 310 318 0
303 310 319 0
303 310 320 0
303 310 321 0
303 310 322 0
303 310 323 0
303 310 324 0
303 310 325 0
303 311 312 0
303 311 313 0
303 311 314 0
303 311 315 0
303 311 316 0
303 311 317 0
303 311 318 0
303 311 319 0
303 311 320 0
303 311 321 0
303 311 322 0
303 311 323 0
303 311 324 0
303 311 325 0
303 312 313 0
303 312 314 0
303 312 315 0
303 312 316 0
303 312 317 0
303 312 318 0
303 312 319 0
303 312 320 0
303 312 321 0
303 312 322 0
303 312 323 0
303 312 324 0
303 312 325 0
303 313 314 0
303 313 315 0
303 313 316 0
303 313 317 0
303 313 318 0
303 313 319 0
303 313 320 0
303 313 321 0
303 313 322 0
303 313 323 0
303 313 324 0
303 313 325 0
303 314 315 0
303 314 316 0
303 314 317 0
303 314 318 0
303 314 319 0
303 314 320 0
303 314 321 0
303 314 322 0
303 314 323 0
303 314 324 0
303 314 325 0
303 315 316 0
303 315 317 0
303 315 318 0
303 315 319 0
303 315 320 0
303 315 321 0
303 315 322 0
303 315 323 0
303 315 324 0
303 315 325 0
303 316 317 0
303 316 318 0
303 316 319 0
303 316 320 0
303 316 321 0
303 316 322 0
303 316 323 0
303 316 324 0
303 316 325 0
303 317 318 0
303 317 319 0
303 317 320 0
303 317 321 0
303 317 322 0
303 317 323 0
303 317 324 0
303 317 325 0
303 318 319 0
303 318 320 0
303 318 321 0
303 318 322 0
303 318 323 0
303 318 324 0
303 318 325 0
303 319 320 0
303 319 321 0
303 319 322 0
303 319 323 0
303 319 324 0
303 319 325 0
303 320 321 0
303 320 322 0
303 320 323 0
303 320 324 0
303 320 325 0
303 321 322 0
303 321 323 0
303 321 324 0
303 321 325 0
303 322 323 0
303 322 324 0
303 322 325 0
303 323 324 0
303 323 325 0
303 324 325 0
304 305 306 0
304 305 307 0
304 305 308 0
304 305 309 0
304 305 310 0
304 305 311 0
304 305 312 0
304 305 313 0
304 305 314 0
304 305 315 0
304 305 316 0
304 305 317 0
304 305 318 0
304 305 319 0
304 305 320 0
304 305 321 0
304 305 322 0
304 305 323 0
304 305 324 0
304 305 325 0
304 306 307 0
304 306 308 0
304 306 309 0
304 306 310 0
304 306 311 0
304 306 312 0
304 306 313 0
304 306 314 0
304 306 315 0
304 306 316 0
304 306 317 0
304 306 318 0
304 306 319 0
304 306 320 0
304 306 321 0
304 306 322 0
304 306 323 0
304 306 324 0
304 306 325 0
304 307 308 0
304 307 309 0
304 307 310 0
304 307 311 0
304 307 312 0
304 307 313 0
304 307 314 0
304 307 315 0
304 307 316 0
304 307 317 0
304 307 318 0
304 307 319 0
304 307 320 0
304 307 321 0
304 307 322 0
304 307 323 0
304 307 324 0
304 307 325 0
304 308 309 0
304 308 310 0
304 308 311 0
304 308 312 0
304 308 313 0
304 308 314 0
304 308 315 0
304 308 316 0
304 308 317 0
304 308 318 0
304 308 319 0
304 308 320 0
304 308 321 0
304 308 322 0
304 308 323 0
304 308 324 0
304 308 325 0
304 309 310 0
304 309 311 0
304 309 312 0
304 309 313 0
304 309 314 0
304 309 315 0
304 309 316 0
304 309 317 0
304 309 318 0
304 309 319 0
304 309 320 0
304 309 321 0
304 309 322 0
304 309 323 0
304 309 324 0
304 309 325 0
304 310 311 0
304 310 312 0
304 310 313 0
304 310 314 0
304 310 315 0
304 310 316 0
304 310 317 0
304 310 318 0
304 310 319 0
304 310 320 0
304 310 321 0
304 310 322 0
304 310 323 0
304 310 324 0
304 310 325 0
304 311 312 0
304 311 313 0
304 311 314 0
304 311 315 0
304 311 316 0
304 311 317 0
304 311 318 0
304 311 319 0
304 311 320 0
304 311 321 0
304 311 322 0
304 311 323 0
304 311 324 0
304 311 325 0
304 312 313 0
304 312 314 0
304 312 315 0
304 312 316 0
304 312 317 0
304 312 318 0
304 312 319 0
304 312 320 0
304 312 321 0
304 312 322 0
304 312 323 0
304 312 324 0
304 312 325 0
304 313 314 0
304 313 315 0
304 313 316 0
304 313 317 0
304 313 318 0
304 313 319 0
304 313 320 0
304 313 321 0
304 313 322 0
304 313 323 0
304 313 324 0
304 313 325 0
304 314 315 0
304 314 316 0
304 314 317 0
304 314 318 0
304 314 319 0
304 314 320 0
304 314 321 0
304 314 322 0
304 314 323 0
304 314 324 0
304 314 325 0
304 315 316 0
304 315 317 0
304 315 318 0
304 315 319 0
304 315 320 0
304 315 321 0
304 315 322 0
304 315 323 0
304 315 324 0
304 315 325 0
304 316 317 0
304 316 318 0
304 316 319 0
304 316 320 0
304 316 321 0
304 316 322 0
304 316 323 0
304 316 324 0
304 316 325 0
304 317 318 0
304 317 319 0
304 317 320 0
304 317 321 0
304 317 322 0
304 317 323 0
304 317 324 0
304 317 325 0
304 318 319 0
304 318 320 0
304 318 321 0
304 318 322 0
304 318 323 0
304 318 324 0
304 318 325 0
304 319 320 0
304 319 321 0
304 319 322 0
304 319 323 0
304 319 324 0
304 319 325 0
304 320 321 0
304 320 322 0
304 320 323 0
304 320 324 0
304 320 325 0
304 321 322 0
304 321 323 0
304 321 324 0
304 321 325 0
304 322 323 0
304 322 324 0
304 322 325 0
304 323 324 0
304 323 325 0
304 324 325 0
305 306 307 0
305 306 308 0
305 306 309 0
305 306 310 0
305 306 311 0
305 306 312 0
305 306 313 0
305 306 314 0
305 306 315 0
305 306 316 0
305 306 317 0
305 306 318 0
305 306 319 0
305 306 320 0
305 306 321 0
305 306 322 0
305 306 323 0
305 306 324 0
305 306 325 0
305 307 308 0
305 307 309 0
305 307 310 0
305 307 311 0
305 307 312 0
305 307 313 0
305 307 314 0
305 307 315 0
305 307 316 0
305 307 317 0
305 307 318 0
305 307 319 0
305 307 320 0
305 307 321 0
305 307 322 0
305 307 323 0
305 307 324 0
305 307 325 0
305 308 309 0
305 308 310 0
305 308 311 0
305 308 312 0
305 308 313 0
305 308 314 0
305 308 315 0
305 308 316 0
305 308 317 0
305 308 318 0
305 308 319 0
305 308 320 0
305 308 321 0
305 308 322 0
305 308 323 0
305 308 324 0
305 308 325 0
305 309 310 0
305 309 311 0
305 309 312 0
305 309 313 0
305 309 314 0
305 309 315 0
305 309 316 0
305 309 317 0
305 309 318 0
305 309 319 0
305 309 320 0
305 309 321 0
305 309 322 0
305 309 323 0
305 309 324 0
305 309 325 0
305 310 311 0
305 310 312 0
305 310 313 0
305 310 314 0
305 310 315 0
305 310 316 0
305 310 317 0
305 310 318 0
305 310 319 0
305 310 320 0
305 310 321 0
305 310 322 0
305 310 323 0
305 310 324 0
305 310 325 0
305 311 312 0
305 311 313 0
305 311 314 0
305 311 315 0
305 311 316 0
305 311 317 0
305 311 318 0
305 311 319 0
305 311 320 0
305 311 321 0
305 311 322 0
305 311 323 0
305 311 324 0
305 311 325 0
305 312 313 0
305 312 314 0
305 312 315 0
305 312 316 0
305 312 317 0
305 312 318 0
305 312 319 0
305 312 320 0
305 312 321 0
305 312 322 0
305 312 323 0
305 312 324 0
305 312 325 0
305 313 314 0
305 313 315 0
305 313 316 0
305 313 317 0
305 313 318 0
305 313 319 0
305 313 320 0
305 313 321 0
305 313 322 0
305 313 323 0
305 313 324 0
305 313 325 0
305 314 315 0
305 314 316 0
305 314 317 0
305 314 318 0
305 314 319 0
305 314 320 0
305 314 321 0
305 314 322 0
305 314 323 0
305 314 324 0
305 314 325 0
305 315 316 0
305 315 317 0
305 315 318 0
305 315 319 0
305 315 320 0
305 315 321 0
305 315 322 0
305 315 323 0
305 315 324 0
305 315 325 0
305 316 317 0
305 316 318 0
305 316 319 0
305 316 320 0
305 316 321 0
305 316 322 0
305 316 323 0
305 316 324 0
305 316 325 0
305 317 318 0
305 317 319 0
305 317 320 0
305 317 321 0
305 317 322 0
305 317 323 0
305 317 324 0
305 317 325 0
305 318 319 0
305 318 320 0
305 318 321 0
305 318 322 0
305 318 323 0
305 318 324 0
305 318 325 0
305 319 320 0
305 319 321 0
305 319 322 0
305 319 323 0
305 319 324 0
305 319 325 0
305 320 321 0
305 320 322 0
305 320 323 0
305 320 324 0
305 320 325 0
305 321 322 0
305 321 323 0
305 321 324 0
305 321 325 0
305 322 323 0
305 322 324 0
305 322 325 0
305 323 324 0
305 323 325 0
305 324 325 0
306 307 308 0
306 307 309 0
306 307 310 0
306 307 311 0
306 307 312 0
306 307 313 0
306 307 314 0
306 307 315 0
306 307 316 0
306 307 317 0
306 307 318 0
306 307 319 0
306 307 320 0
306 307 321 0
306 307 322 0
306 307 323 0
306 307 324 0
306 307 325 0
306 308 309 0
306 308 310 0
306 308 311 0
306 308 312 0
306 308 313 0
306 308 314 0
306 308 315 0
306 308 316 0
306 308 317 0
306 308 318 0
306 308 319 0
306 308 320 0
306 308 321 0
306 308 322 0
306 308 323 0
306 308 324 0
306 308 325 0
306 309 310 0
306 309 311 0
306 309 312 0
306 309 313 0
306 309 314 0
306 309 315 0
306 309 316 0
306 309 317 0
306 309 318 0
306 309 319 0
306 309 320 0
306 309 321 0
306 309 322 0
306 309 323 0
306 309 324 0
306 309 325 0
306 310 311 0
306 310 312 0
306 310 313 0
306 310 314 0
306 310 315 0
306 310 316 0
306 310 317 0
306 310 318 0
306 310 319 0
306 310 320 0
306 310 321 0
306 310 322 0
306 310 323 0
306 310 324 0
306 310 325 0
306 311 312 0
306 311 313 0
306 311 314 0
306 311 315 0
306 311 316 0
306 311 317 0
306 311 318 0
306 311 319 0
306 311 320 0
306 311 321 0
306 311 322 0
306 311 323 0
306 311 324 0
306 311 325 0
306 312 313 0
306 312 314 0
306 312 315 0
306 312 316 0
306 312 317 0
306 312 318 0
306 312 319 0
306 312 320 0
306 312 321 0
306 312 322 0
306 312 323 0
306 312 324 0
306 312 325 0
306 313 314 0
306 313 315 0
306 313 316 0
306 313 317 0
306 313 318 0
306 313 319 0
306 313 320 0
306 313 321 0
306 313 322 0
306 313 323 0
306 313 324 0
306 313 325 0
306 314 315 0
306 314 316 0
306 314 317 0
306 314 318 0
306 314 319 0
306 314 320 0
306 314 321 0
306 314 322 0
306 314 323 0
306 314 324 0
306 314 325 0
306 315 316 0
306 315 317 0
306 315 318 0
306 315 319 0
306 315 320 0
306 315 321 0
306 315 322 0
306 315 323 0
306 315 324 0
306 315 325 0
306 316 317 0
306 316 318 0
306 316 319 0
306 316 320 0
306 316 321 0
306 316 322 0
306 316 323 0
306 316 324 0
306 316 325 0
306 317 318 0
306 317 319 0
306 317 320 0
306 317 321 0
306 317 322 0
306 317 323 0
306 317 324 0
306 317 325 0
306 318 319 0
306 318 320 0
306 318 321 0
306 318 322 0
306 318 323 0
306 318 324 0
306 318 325 0
306 319 320 0
306 319 321 0
306 319 322 0
306 319 323 0
306 319 324 0
306 319 325 0
306 320 321 0
306 320 322 0
306 320 323 0
306 320 324 0
306 320 325 0
306 321 322 0
306 321 323 0
306 321 324 0
306 321 325 0
306 322 323 0
306 322 324 0
306 322 325 0
306 323 324 0
306 323 325 0
306 324 325 0
307 308 309 0
307 308 310 0
307 308 311 0
307 308 312 0
307 308 313 0
307 308 314 0
307 308 315 0
307 308 316 0
307 308 317 0
307 308 318 0
307 308 319 0
307 308 320 0
307 308 321 0
307 308 322 0
307 308 323 0
307 308 324 0
307 308 325 0
307 309 310 0
307 309 311 0
307 309 312 0
307 309 313 0
307 309 314 0
307 309 315 0
307 309 316 0
307 309 317 0
307 309 318 0
307 309 319 0
307 309 320 0
307 309 321 0
307 309 322 0
307 309 323 0
307 309 324 0
307 309 325 0
307 310 311 0
307 310 312 0
307 310 313 0
307 310 314 0
307 310 315 0
307 310 316 0
307 310 317 0
307 310 318 0
307 310 319 0
307 310 320 0
307 310 321 0
307 310 322 0
307 310 323 0
307 310 324 0
307 310 325 0
307 311 312 0
307 311 313 0
307 311 314 0
307 311 315 0
307 311 316 0
307 311 317 0
307 311 318 0
307 311 319 0
307 311 320 0
307 311 321 0
307 311 322 0
307 311 323 0
307 311 324 0
307 311 325 0
307 312 313 0
307 312 314 0
307 312 315 0
307 312 316 0
307 312 317 0
307 312 318 0
307 312 319 0
307 312 320 0
307 312 321 0
307 312 322 0
307 312 323 0
307 312 324 0
307 312 325 0
307 313 314 0
307 313 315 0
307 313 316 0
307 313 317 0
307 313 318 0
307 313 319 0
307 313 320 0
307 313 321 0
307 313 322 0
307 313 323 0
307 313 324 0
307 313 325 0
307 314 315 0
307 314 316 0
307 314 317 0
307 314 318 0
307 314 319 0
307 314 320 0
307 314 321 0
307 314 322 0
307 314 323 0
307 314 324 0
307 314 325 0
307 315 316 0
307 315 317 0
307 315 318 0
307 315 319 0
307 315 320 0
307 315 321 0
307 315 322 0
307 315 323 0
307 315 324 0
307 315 325 0
307 316 317 0
307 316 318 0
307 316 319 0
307 316 320 0
307 316 321 0
307 316 322 0
307 316 323 0
307 316 324 0
307 316 325 0
307 317 318 0
307 317 319 0
307 317 320 0
307 317 321 0
307 317 322 0
307 317 323 0
307 317 324 0
307 317 325 0
307 318 319 0
307 318 320 0
307 318 321 0
307 318 322 0
307 318 323 0
307 318 324 0
307 318 325 0
307 319 320 0
307 319 321 0
307 319 322 0
307 319 323 0
307 319 324 0
307 319 325 0
307 320 321 0
307 320 322 0
307 320 323 0
307 320 324 0
307 320 325 0
307 321 322 0
307 321 323 0
307 321 324 0
307 321 325 0
307 322 323 0
307 322 324 0
307 322 325 0
307 323 324 0
307 323 325 0
307 324 325 0
308 309 310 0
308 309 311 0
308 309 312 0
308 309 313 0
308 309 314 0
308 309 315 0
308 309 316 0
308 309 317 0
308 309 318 0
308 309 319 0
308 309 320 0
308 309 321 0
308 309 322 0
308 309 323 0
308 309 324 0
308 309 325 0
308 310 311 0
308 310 312 0
308 310 313 0
308 310 314 0
308 310 315 0
308 310 316 0
308 310 317 0
308 310 318 0
308 310 319 0
308 310 320 0
308 310 321 0
308 310 322 0
308 310 323 0
308 310 324 0
308 310 325 0
308 311 312 0
308 311 313 0
308 311 314 0
308 311 315 0
308 311 316 0
308 311 317 0
308 311 318 0
308 311 319 0
308 311 320 0
308 311 321 0
308 311 322 0
308 311 323 0
308 311 324 0
308 311 325 0
308 312 313 0
308 312 314 0
308 312 315 0
308 312 316 0
308 312 317 0
308 312 318 0
308 312 319 0
308 312 320 0
308 312 321 0
308 312 322 0
308 312 323 0
308 312 324 0
308 312 325 0
308 313 314 0
308 313 315 0
308 313 316 0
308 313 317 0
308 313 318 0
308 313 319 0
308 313 320 0
308 313 321 0
308 313 322 0
308 313 323 0
308 313 324 0
308 313 325 0
308 314 315 0
308 314 316 0
308 314 317 0
308 314 318 0
308 314 319 0
308 314 320 0
308 314 321 0
308 314 322 0
308 314 323 0
308 314 324 0
308 314 325 0
308 315 316 0
308 315 317 0
308 315 318 0
308 315 319 0
308 315 320 0
308 315 321 0
308 315 322 0
308 315 323 0
308 315 324 0
308 315 325 0
308 316 317 0
308 316 318 0
308 316 319 0
308 316 320 0
308 316 321 0
308 316 322 0
308 316 323 0
308 316 324 0
308 316 325 0
308 317 318 0
308 317 319 0
308 317 320 0
308 317 321 0
308 317 322 0
308 317 323 0
308 317 324 0
308 317 325 0
308 318 319 0
308 318 320 0
308 318 321 0
308 318 322 0
308 318 323 0
308 318 324 0
308 318 325 0
308 319 320 0
308 319 321 0
308 319 322 0
308 319 323 0
308 319 324 0
308 319 325 0
308 320 321 0
308 320 322 0
308 320 323 0
308 320 324 0
308 320 325 0
308 321 322 0
308 321 323 0
308 321 324 0
308 321 325 0
308 322 323 0
308 322 324 0
308 322 325 0
308 323 324 0
308 323 325 0
308 324 325 0
309 310 311 0
309 310 312 0
309 310 313 0
309 310 314 0
309 310 315 0
309 310 316 0
309 310 317 0
309 310 318 0
309 310 319 0
309 310 320 0
309 310 321 0
309 310 322 0
309 310 323 0
309 310 324 0
309 310 325 0
309 311 312 0
309 311 313 0
309 311 314 0
309 311 315 0
309 311 316 0
309 311 317 0
309 311 318 0
309 311 319 0
309 311 320 0
309 311 321 0
309 311 322 0
309 311 323 0
309 311 324 0
309 311 325 0
309 312 313 0
309 312 314 0
309 312 315 0
309 312 316 0
309 312 317 0
309 312 318 0
309 312 319 0
309 312 320 0
309 312 321 0
309 312 322 0
309 312 323 0
309 312 324 0
309 312 325 0
309 313 314 0
309 313 315 0
309 313 316 0
309 313 317 0
309 313 318 0
309 313 319 0
309 313 320 0
309 313 321 0
309 313 322 0
309 313 323 0
309 313 324 0
309 313 325 0
309 314 315 0
309 314 316 0
309 314 317 0
309 314 318 0
309 314 319 0
309 314 320 0
309 314 321 0
309 314 322 0
309 314 323 0
309 314 324 0
309 314 325 0
309 315 316 0
309 315 317 0
309 315 318 0
309 315 319 0
309 315 320 0
309 315 321 0
309 315 322 0
309 315 323 0
309 315 324 0
309 315 325 0
309 316 317 0
309 316 318 0
309 316 319 0
309 316 320 0
309 316 321 0
309 316 322 0
309 316 323 0
309 316 324 0
309 316 325 0
309 317 318 0
309 317 319 0
309 317 320 0
309 317 321 0
309 317 322 0
309 317 323 0
309 317 324 0
309 317 325 0
309 318 319 0
309 318 320 0
309 318 321 0
309 318 322 0
309 318 323 0
309 318 324 0
309 318 325 0
309 319 320 0
309 319 321 0
309 319 322 0
309 319 323 0
309 319 324 0
309 319 325 0
309 320 321 0
309 320 322 0
309 320 323 0
309 320 324 0
309 320 325 0
309 321 322 0
309 321 323 0
309 321 324 0
309 321 325 0
309 322 323 0
309 322 324 0
309 322 325 0
309 323 324 0
309 323 325 0
309 324 325 0
310 311 312 0
310 311 313 0
310 311 314 0
310 311 315 0
310 311 316 0
310 311 317 0
310 311 318 0
310 311 319 0
310 311 320 0
310 311 321 0
310 311 322 0
310 311 323 0
310 311 324 0
310 311 325 0
310 312 313 0
310 312 314 0
310 312 315 0
310 312 316 0
310 312 317 0
310 312 318 0
310 312 319 0
310 312 320 0
310 312 321 0
310 312 322 0
310 312 323 0
310 312 324 0
310 312 325 0
310 313 314 0
310 313 315 0
310 313 316 0
310 313 317 0
310 313 318 0
310 313 319 0
310 313 320 0
310 313 321 0
310 313 322 0
310 313 323 0
310 313 324 0
310 313 325 0
310 314 315 0
310 314 316 0
310 314 317 0
310 314 318 0
310 314 319 0
310 314 320 0
310 314 321 0
310 314 322 0
310 314 323 0
310 314 324 0
310 314 325 0
310 315 316 0
310 315 317 0
310 315 318 0
310 315 319 0
310 315 320 0
310 315 321 0
310 315 322 0
310 315 323 0
310 315 324 0
310 315 325 0
310 316 317 0
310 316 318 0
310 316 319 0
310 316 320 0
310 316 321 0
310 316 322 0
310 316 323 0
310 316 324 0
310 316 325 0
310 317 318 0
310 317 319 0
310 317 320 0
310 317 321 0
310 317 322 0
310 317 323 0
310 317 324 0
310 317 325 0
310 318 319 0
310 318 320 0
310 318 321 0
310 318 322 0
310 318 323 0
310 318 324 0
310 318 325 0
310 319 320 0
310 319 321 0
310 319 322 0
310 319 323 0
310 319 324 0
310 319 325 0
310 320 321 0
310 320 322 0
310 320 323 0
310 320 324 0
310 320 325 0
310 321 322 0
310 321 323 0
310 321 324 0
310 321 325 0
310 322 323 0
310 322 324 0
310 322 325 0
310 323 324 0
310 323 325 0
310 324 325 0
311 312 313 0
311 312 314 0
311 312 315 0
311 312 316 0
311 312 317 0
311 312 318 0
311 312 319 0
311 312 320 0
311 312 321 0
311 312 322 0
311 312 323 0
311 312 324 0
311 312 325 0
311 313 314 0
311 313 315 0
311 313 316 0
311 313 317 0
311 313 318 0
311 313 319 0
311 313 320 0
311 313 321 0
311 313 322 0
311 313 323 0
311 313 324 0
311 313 325 0
311 314 315 0
311 314 316 0
311 314 317 0
311 314 318 0
311 314 319 0
311 314 320 0
311 314 321 0
311 314 322 0
311 314 323 0
311 314 324 0
311 314 325 0
311 315 316 0
311 315 317 0
311 315 318 0
311 315 319 0
311 315 320 0
311 315 321 0
311 315 322 0
311 315 323 0
311 315 324 0
311 315 325 0
311 316 317 0
311 316 318 0
311 316 319 0
311 316 320 0
311 316 321 0
311 316 322 0
311 316 323 0
311 316 324 0
311 316 325 0
311 317 318 0
311 317 319 0
311 317 320 0
311 317 321 0
311 317 322 0
311 317 323 0
311 317 324 0
311 317 325 0
311 318 319 0
311 318 320 0
311 318 321 0
311 318 322 0
311 318 323 0
311 318 324 0
311 318 325 0
311 319 320 0
311 319 321 0
311 319 322 0
311 319 323 0
311 319 324 0
311 319 325 0
311 320 321 0
311 320 322 0
311 320 323 0
311 320 324 0
311 320 325 0
311 321 322 0
311 321 323 0
311 321 324 0
311 321 325 0
311 322 323 0
311 322 324 0
311 322 325 0
311 323 324 0
311 323 325 0
311 324 325 0
312 313 314 0
312 313 315 0
312 313 316 0
312 313 317 0
312 313 318 0
312 313 319 0
312 313 320 0
312 313 321 0
312 313 322 0
312 313 323 0
312 313 324 0
312 313 325 0
312 314 315 0
312 314 316 0
312 314 317 0
312 314 318 0
312 314 319 0
312 314 320 0
312 314 321 0
312 314 322 0
312 314 323 0
312 314 324 0
312 314 325 0
312 315 316 0
312 315 317 0
312 315 318 0
312 315 319 0
312 315 320 0
312 315 321 0
312 315 322 0
312 315 323 0
312 315 324 0
312 315 325 0
312 316 317 0
312 316 318 0
312 316 319 0
312 316 320 0
312 316 321 0
312 316 322 0
312 316 323 0
312 316 324 0
312 316 325 0
312 317 318 0
312 317 319 0
312 317 320 0
312 317 321 0
312 317 322 0
312 317 323 0
312 317 324 0
312 317 325 0
312 318 319 0
312 318 320 0
312 318 321 0
312 318 322 0
312 318 323 0
312 318 324 0
312 318 325 0
312 319 320 0
312 319 321 0
312 319 322 0
312 319 323 0
312 319 324 0
312 319 325 0
312 320 321 0
312 320 322 0
312 320 323 0
312 320 324 0
312 320 325 0
312 321 322 0
312 321 323 0
312 321 324 0
312 321 325 0
312 322 323 0
312 322 324 0
312 322 325 0
312 323 324 0
312 323 325 0
312 324 325 0
313 314 315 0
313 314 316 0
313 314 317 0
313 314 318 0
313 314 319 0
313 314 320 0
313 314 321 0
313 314 322 0
313 314 323 0
313 314 324 0
313 314 325 0
313 315 316 0
313 315 317 0
313 315 318 0
313 315 319 0
313 315 320 0
313 315 321 0
313 315 322 0
313 315 323 0
313 315 324 0
313 315 325 0
313 316 317 0
313 316 318 0
313 316 319 0
313 316 320 0
313 316 321 0
313 316 322 0
313 316 323 0
313 316 324 0
313 316 325 0
313 317 318 0
313 317 319 0
313 317 320 0
313 317 321 0
313 317 322 0
313 317 323 0
313 317 324 0
313 317 325 0
313 318 319 0
313 318 320 0
313 318 321 0
313 318 322 0
313 318 323 0
313 318 324 0
313 318 325 0
313 319 320 0
313 319 321 0
313 319 322 0
313 319 323 0
313 319 324 0
313 319 325 0
313 320 321 0
313 320 322 0
313 320 323 0
313 320 324 0
313 320 325 0
313 321 322 0
313 321 323 0
313 321 324 0
313 321 325 0
313 322 323 0
313 322 324 0
313 322 325 0
313 323 324 0
313 323 325 0
313 324 325 0
314 315 316 0
314 315 317 0
314 315 318 0
314 315 319 0
314 315 320 0
314 315 321 0
314 315 322 0
314 315 323 0
314 315 324 0
314 315 325 0
314 316 317 0
314 316 318 0
314 316 319 0
314 316 320 0
314 316 321 0
314 316 322 0
314 316 323 0
314 316 324 0
314 316 325 0
314 317 318 0
314 317 319 0
314 317 320 0
314 317 321 0
314 317 322 0
314 317 323 0
314 317 324 0
314 317 325 0
314 318 319 0
314 318 320 0
314 318 321 0
314 318 322 0
314 318 323 0
314 318 324 0
314 318 325 0
314 319 320 0
314 319 321 0
314 319 322 0
314 319 323 0
314 319 324 0
314 319 325 0
314 320 321 0
314 320 322 0
314 320 323 0
314 320 324 0
314 320 325 0
314 321 322 0
314 321 323 0
314 321 324 0
314 321 325 0
314 322 323 0
314 322 324 0
314 322 325 0
314 323 324 0
314 323 325 0
314 324 325 0
315 316 317 0
315 316 318 0
315 316 319 0
315 316 320 0
315 316 321 0
315 316 322 0
315 316 323 0
315 316 324 0
315 316 325 0
315 317 318 0
315 317 319 0
315 317 320 0
315 317 321 0
315 317 322 0
315 317 323 0
315 317 324 0
315 317 325 0
315 318 319 0
315 318 320 0
315 318 321 0
315 318 322 0
315 318 323 0
315 318 324 0
315 318 325 0
315 319 320 0
315 319 321 0
315 319 322 0
315 319 323 0
315 319 324 0
315 319 325 0
315 320 321 0
315 320 322 0
315 320 323 0
315 320 324 0
315 320 325 0
315 321 322 0
315 321 323 0
315 321 324 0
315 321 325 0
315 322 323 0
315 322 324 0
315 322 325 0
315 323 324 0
315 323 325 0
315 324 325 0
316 317 318 0
316 317 319 0
316 317 320 0
316 317 321 0
316 317 322 0
316 317 323 0
316 317 324 0
316 317 325 0
316 318 319 0
316 318 320 0
316 318 321 0
316 318 322 0
316 318 323 0
316 318 324 0
316 318 325 0
316 319 320 0
316 319 321 0
316 319 322 0
316 319 323 0
316 319 324 0
316 319 325 0
316 320 321 0
316 320 322 0
316 320 323 0
316 320 324 0
316 320 325 0
316 321 322 0
316 321 323 0
316 321 324 0
316 321 325 0
316 322 323 0
316 322 324 0
316 322 325 0
316 323 324 0
316 323 325 0
316 324 325 0
317 318 319 0
317 318 320 0
317 318 321 0
317 318 322 0
317 318 323 0
317 318 324 0
317 318 325 0
317 319 320 0
317 319 321 0
317 319 322 0
317 319 323 0
317 319 324 0
317 319 325 0
317 320 321 0
317 320 322 0
317 320 323 0
317 320 324 0
317 320 325 0
317 321 322 0
317 321 323 0
317 321 324 0
317 321 325 0
317 322 323 0
317 322 324 0
317 322 325 0
317 323 324 0
317 323 325 0
317 324 325 0
318 319 320 0
318 319 321 0
318 319 322 0
318 319 323 0
318 319 324 0
318 319 325 0
318 320 321 0
318 320 322 0
318 320 323 0
318 320 324 0
318 320 325 0
318 321 322 0
318 321 323 0
318 321 324 0
318 321 325 0
318 322 323 0
318 322 324 0
318 322 325 0
318 323 324 0
318 323 325 0
318 324 325 0
319 320 321 0
319 320 322 0
319 320 323 0
319 320 324 0
319 320 325 0
319 321 322 0
319 321 323 0
319 321 324 0
319 321 325 0
319 322 323 0
319 322 324 0
319 322 325 0
319 323 324 0
319 323 325 0
319 324 325 0
320 321 322 0
320 321 323 0
320 321 324 0
320 321 325 0
320 322 323 0
320 322 324 0
320 322 325 0
320 323 324 0
320 323 325 0
320 324 325 0
321 322 323 0
321 322 324 0
321 322 325 0
321 323 324 0
321 323 325 0
321 324 325 0
322 323 324 0
322 323 325 0
322 324 325 0
323 324 325 0
-1 326 0
-2 326 0
-3 326 0
-4 326 0
-5 326 0
-6 326 0
-7 326 0
-8 326 0
-9 326 0
-10 326 0
-11 326 0
-12 326 0
-13 326 0
-14 326 0
-15 326 0
-16 326 0
-17 326 0
-18 326 0
-19 326 0
-20 326 0
-21 326 0
-22 326 0
-23 326 0
-24 326 0
-25 326 0
-326 1 2 3 4 5 6 7 8 9 10 11 12 13 14 15 16 17 18 19 20 21 22 23 24 25 0
-26 327 0
-27 327 0
-28 327 0
-29 327 0
-30 327 0
-31 327 0
-32 327 0
-33 327 0
-34 327 0
-35 327 0
-36 327 0
-37 327 0
-38 327 0
-39 327 0
-40 327 0
-41 327 0
-42 327 0
-43 327 0
-44 327 0
-45 327 0
-46 327 0
-47 327 0
-48 327 0
-49 327 0
-50 327 0
-327 26 27 28 29 30 31 32 33 34 35 36 37 38 39 40 41 42 43 44 45 46 47 48 49 50 0
-51 328 0
-52 328 0
-53 328 0
-54 328 0
-55 328 0
-56 328 0
-57 328 0
-58 328 0
-59 328 0
-60 328 0
-61 328 0
-62 328 0
-63 328 0
-64 328 0
-65 328 0
-66 328 0
-67 328 0
-68 328 0
-69 328 0
-70 328 0
-71 328 0
-72 328 0
-73 328 0
-74 328 0
-75 328 0
-328 51 52 53 54 55 56 57 58 59 60 61 62 63 64 65 66 67 68 69 70 71 72 73 74 75 0
-76 329 0
-77 329 0
-78 329 0
-79 329 0
-80 329 0
-81 329 0
-82 329 0
-83 329 0
-84 329 0
-85 329 0
-86 329 0
-87 329 0
-88 329 0
-89 329 0
-90 329 0
-91 329 0
-92 329 0
-93 329 0
-94 329 0
-95 329 0
-96 329 0
-97 329 0
-98 329 0
-99 329 0
-100 329 0
-329 76 77 78 79 80 81 82 83 84 85 86 87 88 89 90 91 92 93 94 95 96 97 98 99 100 0
-101 330 0
-102 330 0
-103 330 0
-104 330 0
-105 330 0
-106 330 0
-107 330 0
-108 330 0
-109 330 0
-110 330 0
-111 330 0
-112 330 0
-113 330 0
-114 330 0
-115 330 0
-116 330 0
-117 330 0
-118 330 0
-119 330 0
-120 330 0
-121 330 0
-122 330 0
-123 330 0
-124 330 0
-125 330 0
-330 101 102 103 104 105 106 107 108 109 110 111 112 113 114 115 116 117 118 119 120 121 122 123 124 125 0
-126 331 0
-127 331 0
-128 331 0
-129 331 0
-130 331 0
-131 331 0
-132 331 0
-133 331 0
-134 331 0
-135 331 0
-136 331 0
-137 331 0
-138 331 0
-139 331 0
-140 331 0
-141 331 0
-142 331 0
-143 331 0
-144 331 0
-145 331 0
-146 331 0
-147 331 0
-148 331 0
-149 331 0
-150 331 0
-331 126 127 128 129 130 131 132 133 134 135 136 137 138 139 140 141 142 143 144 145 146 147 148 149 150 0
-151 332 0
-152 332 0
-153 332 0
-154 332 0
-155 332 0
-156 332 0
-157 332 0
-158 332 0
-159 332 0
-160 332 0
-161 332 0
-162 332 0
-163 332 0
-164 332 0
-165 332 0
-166 332 0
-167 332 0
-168 332 0
-169 332 0
-170 332 0
-171 332 0
-172 332 0
-173 332 0
-174 332 0
-175 332 0
-332 151 152 153 154 155 156 157 158 159 160 161 162 163 164 165 166 167 168 169 170 171 172 173 174 175 0
-176 333 0
-177 333 0
-178 333 0
-179 333 0
-180 333 0
-181 333 0
-182 333 0
-183 333 0
-184 333 0
-185 333 0
-186 333 0
-187 333 0
-188 333 0
-189 333 0
-190 333 0
-191 333 0
-192 333 0
-193 333 0
-194 333 0
-195 333 0
-196 333 0
-197 333 0
-198 333 0
-199 333 0
-200 333 0
-333 176 177 178 179 180 181 182 183 184 185 186 187 188 189 190 191 192 193 194 195 196 197 198 199 200 0
-201 334 0
-202 334 0
-203 334 0
-204 334 0
-205 334 0
-206 334 0
-207 334 0
-208 334 0
-209 334 0
-210 334 0
-211 334 0
-212 334 0
-213 334 0
-214 334 0
-215 334 0
-216 334 0
-217 334 0
-218 334 0
-219 334 0
-220 334 0
-221 334 0
-222 334 0
-223 334 0
-224 334 0
-225 334 0
-334 201 202 203 204 205 206 207 208 209 210 211 212 213 214 215 216 217 218 219 220 221 222 223 224 225 0
-226 335 0
-227 335 0
-228 335 0
-229 335 0
-230 335 0
-231 335 0
-232 335 0
-233 335 0
-234 335 0
-235 335 0
-236 335 0
-237 335 0
-238 335 0
-239 335 0
-240 335 0
-241 335 0
-242 335 0
-243 335 0
-244 335 0
-245 335 0
-246 335 0
-247 335 0
-248 335 0
-249 335 0
-250 335 0
-335 226 227 228 229 230 231 232 233 234 235 236 237 238 239 240 241 242 243 244 245 246 247 248 249 250 0
-251 336 0
-252 336 0
-253 336 0
-254 336 0
-255 336 0
-256 336 0
-257 336 0
-258 336 0
-259 336 0
-260 336 0
-261 336 0
-262 336 0
-263 336 0
-264 336 0
-265 336 0
-266 336 0
-267 336 0
-268 336 0
-269 336 0
-270 336 0
-271 336 0
-272 336 0
-273 336 0
-274 336 0
-275 336 0
-336 251 252 253 254 255 256 257 258 259 260 261 262 263 264 265 266 267 268 269 270 271 272 273 274 275 0
-276 337 0
-277 337 0
-278 337 0
-279 337 0
-280 337 0
-281 337 0
-282 337 0
-283 337 0
-284 337 0
-285 337 0
-286 337 0
-287 337 0
-288 337 0
-289 337 0
-290 337 0
-291 337 0
-292 337 0
-293 337 0
-294 337 0
-295 337 0
-296 337 0
-297 337 0
-298 337 0
-299 337 0
-300 337 0
-337 276 277 278 279 280 281 282 283 284 285 286 287 288 289 290 291 292 293 294 295 296 297 298 299 300 0
326 329 334 0
327 328 335 336 0
330 331 332 333 337 0
-326 -327 -328 -333 -334 0
-326 -327 -328 -333 -337 0
-326 -327 -328 -334 -337 0
-326 -327 -328 -336 0
-326 -327 -329 0
-326 -327 -330 0
-326 -327 -331 0
-326 -327 -332 0
-326 -327 -333 -334 -336 0
-326 -327 -333 -336 -337 0
-326 -327 -334 -336 -337 0
-326 -327 -335 0
-326 -328 -329 -331 0
-326 -328 -329 -332 -333 -334 -336 0
-326 -328 -329 -332 -333 -336 -337 0
-326 -328 -329 -332 -334 -336 -337 0
-326 -328 -329 -332 -335 0
-326 -328 -329 -333 -334 -335 -337 0
-326 -328 -329 -333 -335 -336 0
-326 -328 -329 -334 -335 -336 0
-326 -328 -329 -335 -336 -337 0
-326 -328 -330 -332 0
-326 -328 -330 -333 -334 -337 0
-326 -328 -330 -333 -336 0
-326 -328 -330 -334 -336 0
-326 -328 -330 -336 -337 0
-326 -328 -331 -332 -333 0
-326 -328 -331 -332 -334 0
-326 -328 -331 -332 -336 0
-326 -328 -331 -332 -337 0
-326 -328 -331 -333 -334 -336 -337 0
-326 -328 -331 -335 0
-326 -328 -332 -333 -334 -335 -336 0
-326 -328 -332 -333 -335 -336 -337 0
-326 -328 -332 -334 -335 -336 -337 0
-326 -329 -330 0
-326 -329 -331 -332 0
-326 -329 -331 -333 -334 0
-326 -329 -331 -333 -337 0
-326 -329 -331 -334 -337 0
-326 -329 -331 -335 0
-326 -329 -331 -336 0
-326 -329 -332 -333 -335 0
-326 -329 -332 -334 -335 0
-326 -329 -332 -335 -336 0
-326 -329 -332 -335 -337 0
-326 -329 -333 -334 -335 -336 -337 0
-326 -330 -331 0
-326 -330 -332 -333 0
-326 -330 -332 -334 0
-326 -330 -332 -336 0
-326 -330 -332 -337 0
-326 -330 -333 -334 -336 -337 0
-326 -330 -335 0
-326 -331 -332 -333 -334 -337 0
-326 -331 -332 -333 -336 0
-326 -331 -332 -334 -336 0
-326 -331 -332 -335 0
-326 -331 -332 -336 -337 0
-326 -331 -333 -334 -335 0
-326 -331 -333 -335 -337 0
-326 -331 -334 -335 -337 0
-326 -331 -335 -336 0
-327 -328 -329 -331 0
-327 -328 -329 -332 -333 -334 -337 0
-327 -328 -329 -332 -333 -336 0
-327 -328 -329 -332 -334 -336 0
-327 -328 -329 -332 -336 -337 0
-327 -328 -329 -333 -334 -335 0
-327 -328 -329 -333 -335 -337 0
-327 -328 -329 -334 -335 -337 0
-327 -328 -329 -335 -336 0
-327 -328 -330 -333 -334 0
-327 -328 -330 -333 -337 0
-327 -328 -330 -334 -337 0
-327 -328 -330 -336 0
-327 -328 -331 -332 0
-327 -328 -331 -333 -334 -336 0
-327 -328 -331 -333 -336 -337 0
-327 -328 -331 -334 -336 -337 0
-327 -328 -331 -335 0
-327 -328 -332 -333 -334 -335 -337 0
-327 -328 -332 -333 -335 -336 0
-327 -328 -332 -334 -335 -336 0
-327 -328 -332 -335 -336 -337 0
-327 -329 -330 0
-327 -329 -331 -332 0
-327 -329 -331 -333 0
-327 -329 -331 -334 0
-327 -329 -331 -335 0
-327 -329 -331 -336 0
-327 -329 -331 -337 0
-327 -329 -332 -333 -334 -336 -337 0
-327 -329 -332 -335 0
-327 -329 -333 -334 -335 -336 0
-327 -329 -333 -335 -336 -337 0
-327 -329 -334 -335 -336 -337 0
-327 -330 -331 0
-327 -330 -332 0
-327 -330 -333 -334 -336 0
-327 -330 -333 -336 -337 0
-327 -330 -334 -336 -337 0
-327 -330 -335 0
-327 -331 -332 -333 -334 0
-327 -331 -332 -333 -337 0
-327 -331 -332 -334 -337 0
-327 -331 -332 -335 0
-327 -331 -332 -336 0
-327 -331 -333 -335 0
-327 -331 -334 -335 0
-327 -331 -335 -336 0
-327 -331 -335 -337 0
-327 -332 -333 -334 -335 -336 -337 0
-328 -329 -330 -331 0
-328 -329 -330 -332 -333 -334 -336 0
-328 -329 -330 -332 -333 -336 -337 0
-328 -329 -330 -332 -334 -336 -337 0
-328 -329 -330 -332 -335 0
-328 -329 -330 -333 -334 -335 -337 0
-328 -329 -330 -333 -335 -336 0
-328 -329 -330 -334 -335 -336 0
-328 -329 -330 -335 -336 -337 0
-328 -329 -331 -332 -333 -335 0
-328 -329 -331 -332 -334 -335 0
-328 -329 -331 -332 -335 -336 0
-328 -329 -331 -332 -335 -337 0
-328 -329 -331 -333 -334 -335 -336 -337 0
-328 -330 -331 -332 -333 0
-328 -330 -331 -332 -334 0
-328 -330 -331 -332 -336 0
-328 -330 -331 -332 -337 0
-328 -330 -331 -333 -334 -336 -337 0
-328 -330 -331 -335 0
-328 -330 -332 -333 -334 -335 -336 0
-328 -330 -332 -333 -335 -336 -337 0
-328 -330 -332 -334 -335 -336 -337 0
-329 -330 -331 -332 0
-329 -330 -331 -333 -334 0
-329 -330 -331 -333 -337 0
-329 -330 -331 -334 -337 0
-329 -330 -331 -335 0
-329 -330 -331 -336 0
-329 -330 -332 -333 -335 0
-329 -330 -332 -334 -335 0
-329 -330 -332 -335 -336 0
-329 -330 -332 -335 -337 0
-329 -330 -333 -334 -335 -336 -337 0
-329 -331 -332 -333 -334 -335 -337 0
-329 -331 -332 -333 -335 -336 0
-329 -331 -332 -334 -335 -336 0
-329 -331 -332 -335 -336 -337 0
-330 -331 -332 -333 -334 -337 0
-330 -331 -332 -333 -336 0
-330 -331 -332 -334 -336 0
-330 -331 -332 -335 0
-330 -331 -332 -336 -337 0
-330 -331 -333 -334 -335 0
-330 -331 -333 -335 -337 0
-330 -331 -334 -335 -337 0
-330 -331 -335 -336 0
